@relation ArabicTextComplexity

@attribute avgSentenceLength numeric
@attribute avgWordLength numeric
@attribute typeTokenRatio numeric
@attribute longWordRatio numeric
@attribute consonantClusterRatio numeric
@attribute complexityLevel {A,B,C,A+,B+}

@data
5,5.2,1,0.2,3,A
2,5.5,1,0,2,A
2,4,1,0,1,A
3,4.333333,1,0,2.333333,A
2,4.5,1,0,1,A
3,4.666667,1,0.333333,1.666667,A
2,5,1,0,3.5,A
3,5,1,0,2,A
2,5,1,0.5,2.5,A
3,4.333333,1,0,1.666667,A
3,4.333333,1,0,2,A
2,5.5,1,0,2,A
3,4,1,0,1,A
2,6,1,0.5,2,A
2,4.5,1,0,1,A
3,4,1,0,1.333333,A
2,5,1,0,1.5,A
2,6,1,0.5,2.5,A
3,5.333333,1,0,1,A
3,4,1,0,0.666667,A
2,4.5,1,0,1,A
2,4.5,1,0,2,A
2,3.5,1,0,1.5,A
3,4.333333,1,0.333333,1,A
2,4,1,0,1,A
2,4.5,1,0,2,A
3,5.333333,1,0.333333,3.666667,A
3,4.333333,1,0,1.666667,A
2,3.5,1,0,2.5,A
4,4.75,1,0.25,1.5,A
2,4.5,1,0,2,A
3,4.666667,1,0.333333,1,A
3,5,1,0.333333,2.333333,A
2,5,1,0,1.5,A
3,3.666667,1,0,1.333333,A
3,5,1,0,1.333333,A
4,3.75,1,0,1,A
2,4.5,1,0,2,A
2,6,1,0.5,3.5,A
3,4.666667,1,0,1.666667,A
2,5.5,1,0,3,A
3,4.333333,1,0,1.333333,A
4,4.25,1,0,1.25,A
2,4.5,1,0,1,A
3,5,1,0,2.333333,A
2,4.5,1,0,1.5,A
3,4.333333,1,0,1.666667,A
4,5,1,0.25,1.75,A
3,3.666667,1,0,1.333333,A
2,5,1,0,3.5,A
3,4.666667,1,0.333333,1.333333,A
2,4.5,1,0,1.5,A
3,4.666667,1,0,1.666667,A
3,3.333333,1,0,0.666667,A
2,5.5,1,0,1,A
3,4.666667,1,0.333333,0.666667,A
3,5.333333,1,0.333333,1.666667,A
3,5,1,0.333333,2,A
3,5,1,0,1,A
3,3.666667,1,0,0.333333,A
3,5,1,0.333333,1.333333,A
3,5.333333,1,0.333333,1.333333,A
3,5,1,0,2.666667,A
4,4,1,0,1.25,A
3,4.666667,1,0,2.333333,A
2,6,1,0.5,2,A
2,4.5,1,0,2.5,A
3,4.666667,1,0.333333,1.666667,A
3,4,1,0,1,A
2,4.5,1,0,1,A
3,4,1,0,1,A
3,3.666667,1,0,1.666667,A
3,5,1,0.333333,2,A
3,4.333333,1,0,2,A
3,4.666667,1,0,2.333333,A
2,6.5,1,0.5,2.5,A
3,4.333333,1,0,1.333333,A
2,4.5,1,0,1,A
4,4.75,1,0.25,2,A
4,3.5,1,0,1,A
3,4,1,0,1,A
3,4.666667,1,0,2,A
3,3.666667,1,0,1,A
3,5.333333,1,0.333333,1,A
3,5.333333,1,0.333333,1,A
3,5.666667,1,0.333333,2,A
4,4,1,0.25,1.25,A
3,3.666667,1,0,1,A
2,4.5,1,0,1,A
4,4.75,1,0.25,1.5,A
2,6,1,0,1.5,A
4,4.25,1,0,1,A
3,4,1,0,1,A
2,5,1,0,1,A
3,4.333333,1,0,1.333333,A
4,4.5,1,0,2,A
2,6,1,0.5,2.5,A
3,4.333333,1,0,1.333333,A
2,6,1,0.5,3.5,A
4,4,1,0,0.75,A
2,4.5,1,0,2,A
3,4,1,0,1,A
3,5,1,0.333333,0.666667,A
4,4.5,1,0,1,A
3,4.666667,1,0.333333,1.333333,A
3,4.333333,1,0,1.333333,A
3,5.666667,1,0.333333,1.666667,A
3,5,1,0.333333,1,A
3,4.333333,1,0,2,A
4,4.5,1,0,1.75,A
3,4.333333,1,0,1.666667,A
3,4.666667,1,0,2,A
4,4.5,1,0,1.25,A
3,5.333333,1,0,2.666667,A
4,4.75,1,0.25,1.25,A
4,4.25,1,0.25,1.5,A
3,4.666667,1,0,1.333333,A
3,5,1,0.333333,1.333333,A
4,3.5,1,0,1.25,A
3,6,1,0.333333,1.666667,A
3,4.666667,1,0.333333,1.333333,A
4,4.5,1,0.25,1.75,A
3,5,1,0,2,A
4,4.5,1,0.25,1,A
3,4.333333,1,0,1.333333,A
4,4.5,1,0,1.75,A
3,4.333333,1,0,0.666667,A
3,5.333333,1,0.333333,2.333333,A
4,4.75,1,0.25,1.75,A
3,4.666667,1,0.333333,1,A
4,4.25,1,0.25,2,A
3,4,1,0,1.333333,A
3,4.666667,1,0,2.333333,A
3,4,1,0,1,A
3,5.333333,1,0,0.666667,A
3,4.666667,1,0.333333,0.666667,A
3,4.333333,1,0,1.666667,A
3,5,1,0,2.666667,A
3,4,1,0,1,A
3,4,1,0,1.666667,A
2,4.5,1,0,1,A
3,5,1,0.333333,2.333333,A
3,4.333333,1,0,1.333333,A
3,4.666667,1,0,2.333333,A
3,4,1,0,0.666667,A
2,4.5,1,0,2.5,A
3,4.666667,1,0.333333,1.333333,A
3,4.666667,1,0,2.333333,A
3,4.666667,1,0.333333,1,A
4,4.75,1,0.25,1.5,A
3,4.666667,1,0,1.666667,A
2,5.5,1,0,2,A
4,4.25,1,0,1,A
3,4.333333,1,0.333333,1,A
3,5.333333,1,0.333333,2.333333,A
3,5,1,0.333333,2,A
3,5.333333,1,0.333333,1.333333,A
4,4.75,1,0,1.25,A
4,5,1,0.5,0.5,A
3,4,1,0,1,A
3,5,1,0.333333,1.333333,A
3,4.333333,1,0,2,A
3,5,1,0.333333,1.333333,A
4,4.5,1,0.25,0.75,A
3,5,1,0,2,A
4,4,1,0,1.25,A
4,3.75,1,0,1,A
4,4.25,1,0.25,2,A
2,6.5,1,0.5,3,A
4,5,1,0,1.5,A
3,5.333333,1,0,2,A
4,4.25,1,0,1.25,A
3,4.666667,1,0.333333,1.333333,A
4,4.75,1,0.25,1.75,A
3,4,1,0,1,A
4,4,1,0,1,A
3,4.333333,1,0,2,A
3,4.333333,1,0,2,A
3,4.333333,1,0,1.333333,A
5,4,1,0,1.2,A
4,5,1,0,1.5,A
3,4.333333,1,0,1.333333,A
4,3.75,1,0,1.25,A
4,4.5,1,0.25,1.75,A
3,5.333333,1,0.333333,2.666667,A
3,5,1,0.333333,2,A
3,4.666667,1,0,2.333333,A
4,4.25,1,0,2,A
3,5.333333,1,0.333333,1,A
4,4.75,1,0.25,1.25,A
3,4.666667,1,0.333333,1.666667,A
4,4.5,1,0.25,1,A
4,4,1,0,1.75,A
5,4.4,1,0.2,1.4,A
4,4.5,1,0,1.25,A
4,4.25,1,0,1.25,A
4,5.25,1,0,1.25,A
5,4.6,1,0.2,1.8,A
5,4.4,1,0.2,1.4,A
4,4.25,1,0,2,A
6,4.333333,1,0,1.333333,A
4,5.25,1,0.25,1.25,A
5,4.4,1,0.2,1.2,A
5,4,1,0,1,A
6,4.333333,1,0.166667,1.5,A
4,4.25,1,0,1.25,A
4,4.5,1,0,1.75,A
4,4.5,1,0,1.25,A
6,4.333333,1,0.166667,1.166667,A
5,5.2,1,0.4,1.4,A
4,4.25,1,0,2,A
5,5.2,1,0.4,1.2,A
4,4.5,1,0,1.5,A
4,5,1,0.25,1.5,A
7,3.714286,1,0.142857,1.571429,A
3,5,1,0,2.666667,A
3,5.333333,1,0,1.333333,A
3,5.666667,1,0.333333,2.333333,A
4,4.25,1,0,1.25,A
3,5,1,0,2.333333,A
4,4.25,1,0,1,A
4,4.5,1,0,1.5,A
3,4.666667,1,0,2,A
4,5.25,1,0.5,1.5,A
5,4.2,1,0,1.6,A
3,4.666667,1,0,1.666667,A
4,5,1,0.25,1.5,A
5,4.4,1,0.2,1.6,A
3,5,1,0,1.333333,A
3,4.666667,1,0,1,A
6,3.333333,1,0,1.333333,A
4,4.5,1,0.25,1.75,A
4,4.75,1,0.25,1.5,A
5,5.4,1,0.4,1.4,A
4,4.75,1,0,1,A
5,4.2,1,0.2,1.8,A
3,5,1,0,3,A
3,4.333333,1,0,2,A
4,5,1,0.25,2.25,A
5,4,1,0,1.6,A
4,5.75,1,0.5,2,A
4,4,1,0,1,A
4,4.5,1,0,2,A
4,3.75,1,0,1.25,A
5,3.8,1,0,1,A
5,4.4,1,0.2,1.8,A
3,5.666667,1,0.333333,3,A
5,4.4,1,0.2,1.8,A
5,5.2,1,0.2,1.6,A
5,4.6,1,0.2,1.8,A
4,4.75,1,0,1.75,A
4,4.25,1,0,0.75,A
4,5.25,1,0.25,1.75,A
5,4,1,0,1.2,A
3,5.333333,1,0.333333,2,A
3,4.333333,1,0,1.333333,A
4,4.75,1,0,1.75,A
3,5,1,0,0.333333,A
4,4.25,1,0,1.5,A
3,5.666667,1,0,2.333333,A
4,4.25,1,0,1.25,A
7,4.714286,1,0.142857,1.714286,A
5,4.8,1,0,2.8,A
4,4.25,1,0.25,1.25,A
5,4.6,1,0,1.2,A
3,5.333333,1,0,1.666667,A
6,4.333333,1,0,1.833333,A
3,4.666667,1,0,1.333333,A
5,4.8,1,0,1.4,A
4,3.75,1,0,1.25,A
7,4.714286,1,0.142857,1.714286,A
4,5,1,0,1,A
5,4,1,0,1.4,A
7,4.857143,1,0.142857,1.571429,A
5,4.4,1,0.2,1.6,A
2,3.5,1,0,0.5,A
3,3.666667,1,0,1,A
1,4,1,0,2,A
2,4,1,0,2,A
2,3,1,0,0.5,A
2,4.5,1,0,2,A
2,3,1,0,2,A
3,4,1,0,2,A
2,3.5,1,0,0.5,A
3,4.666667,1,0.333333,1,A
2,4,1,0,1.5,A
2,3.5,1,0,0.5,A
2,3.5,1,0,1.5,A
3,3.666667,1,0,1.666667,A
3,4.333333,1,0,2,A
4,4.5,1,0.25,1,A
3,3.666667,1,0,1.666667,A
4,4.25,1,0,1.5,A
3,4,1,0,1.666667,A
4,4.25,1,0,1,A
2,4.5,1,0,2.5,A
4,5.5,1,0.25,1.75,A
2,3.5,1,0,1.5,A
4,5,1,0.25,1.25,A
2,3.5,1,0,1.5,A
4,3.75,1,0,1,A
4,3.5,1,0,1,A
5,3.6,1,0,0.4,A
3,3.333333,1,0,0.666667,A
3,3.666667,1,0,1.666667,A
3,3.666667,1,0,1.666667,A
3,3.333333,1,0,1.333333,A
3,3.666667,1,0,0.666667,A
3,4,1,0,0.666667,A
3,3.333333,1,0,0.666667,A
3,3.666667,1,0,0.666667,A
3,3.666667,1,0,1.666667,A
3,4,1,0,1.666667,A
3,3.666667,1,0,0.666667,A
3,3.333333,1,0,1.333333,A
3,4,1,0,1.333333,A
3,3,1,0,1.666667,A
3,3.666667,1,0,2.333333,A
3,3.666667,1,0,1.666667,A
3,3.333333,1,0,0.666667,A
3,3.666667,1,0,2.333333,A
3,3.333333,1,0,0.666667,A
3,3.666667,1,0,1.666667,A
3,3.666667,1,0,1,A
3,4,1,0,2,A
3,4.333333,1,0,1.666667,A
3,4.333333,1,0,1.333333,A
3,4.333333,1,0,1.333333,A
3,3.666667,1,0,1,A
3,4.666667,1,0,2.333333,A
3,4.333333,1,0,2.666667,A
3,4.333333,1,0,2,A
3,4.333333,1,0,1,A
3,4.666667,1,0,2,A
3,5,1,0.333333,2.333333,A
3,5,1,0.333333,2,A
3,5,1,0.333333,2,A
3,4.666667,1,0,2.666667,A
3,4.666667,1,0,2.666667,A
3,5.333333,1,0.333333,2.666667,A
3,5,1,0.333333,2.333333,A
3,5.333333,1,0.333333,2.666667,A
3,5,1,0.333333,3,A
5,4.8,1,0.4,2.4,A
5,4.2,1,0.2,1.8,A
5,4.2,1,0.2,1.2,A
4,4.5,1,0.25,2,A
4,4.25,1,0,1.5,A
4,4.25,1,0.25,1.5,A
4,5.25,1,0.25,2,A
5,4.2,1,0,1.8,A
4,5.25,1,0.5,1.5,A
4,4,1,0,1.25,A
4,4.25,1,0.25,2,A
4,4.25,1,0.25,1.5,A
6,4.333333,1,0.166667,1.5,A
4,4.25,1,0,1.75,A
4,4.75,1,0.25,2,A
4,3.5,1,0,1,A
4,3.25,1,0,1.75,A
6,4.5,1,0.333333,1.666667,A
4,3.5,1,0,1.25,A
4,4.75,1,0.25,2,A
5,4.4,1,0.2,2,A
4,3.75,1,0,1.5,A
4,3.5,1,0,1.5,A
3,3.666667,1,0,1,A
5,4.6,1,0.4,1.4,A
3,4.333333,1,0.333333,1.666667,A
4,3.5,1,0,1.75,A
3,4.333333,1,0.333333,2.333333,A
3,3.333333,1,0,1.666667,A
3,3.666667,1,0,1,A
5,3.6,1,0,1,A
3,3.666667,1,0,1,A
4,4.25,1,0,1.75,A
4,4,1,0,1.5,A
4,3.75,1,0,1,A
5,5,1,0.4,1.4,A
5,4.2,1,0.2,2,A
3,3.666667,1,0,1,A
4,4.5,1,0,1.5,A
5,4.2,1,0.2,1.2,A
5,4,1,0.2,2.4,A
4,4.5,1,0.25,2.5,A
4,4.75,1,0.25,3,A
3,4.666667,1,0,2.666667,A
4,4.25,1,0.25,2,A
5,4.4,1,0.2,1.6,A
5,5,1,0.2,2.2,A
4,4.75,1,0.25,1.75,A
4,4.5,1,0,2.5,A
4,4,1,0,2.5,A
4,5.75,1,0.5,3,A
3,4.666667,1,0.333333,2.666667,A
4,4.25,1,0,1.75,A
4,5.25,1,0.5,2.25,A
5,4.2,1,0,2.4,A
6,4.333333,1,0,1.833333,A
5,4.2,1,0,1.6,A
5,4.6,1,0.2,2,A
4,4.25,1,0,1.5,A
4,5.25,1,0.25,2.25,A
3,6,1,0.333333,2.666667,A
4,5.75,1,0.5,2,A
3,5,1,0.333333,2.333333,A
4,4.5,1,0,1.75,A
4,4.25,1,0,1.75,A
3,4.333333,1,0.333333,1,A
3,5.666667,1,0.333333,1.333333,A
4,4.75,1,0.25,1,A
4,5.5,1,0,2,A
4,5,1,0,2.5,A
3,5,1,0,1.333333,A
3,4.666667,1,0,1.333333,A
4,3.75,1,0,1,A
4,4.25,1,0,1.5,A
4,4.25,1,0,0.75,A
3,4.666667,1,0,1.666667,A
6,4,1,0,1.333333,A
5,4,1,0,1,A
4,4.5,1,0.25,0.75,A
4,4.75,1,0.25,1.25,A
3,4.333333,1,0,2,A
3,5,1,0,2,A
3,6.333333,1,0.666667,2.333333,A
3,4.666667,1,0,1,A
4,5.5,1,0.5,2.5,A
3,5.666667,1,0.333333,2.333333,A
4,5.25,1,0.25,2.25,A
3,6.333333,1,0.333333,1.666667,A
4,5.25,1,0.25,1.5,A
4,5.25,1,0.25,2,A
3,3.666667,1,0,1.666667,A
4,4.75,1,0,2.75,A
3,6.333333,1,0.666667,2.666667,A
3,5.333333,1,0.333333,3.333333,A
3,6,1,0.666667,3,A
3,4.666667,1,0.333333,2.666667,A
3,5,1,0,1.666667,A
3,5.666667,1,0.333333,1,A
4,3.75,1,0,1,A
4,4.25,1,0,1.25,A
4,4.5,1,0,2.25,A
3,5.666667,1,0.333333,0.666667,A
4,5,1,0,2.25,A
4,4.25,1,0,0.75,A
3,5.666667,1,0.333333,2,A
3,5.333333,1,0.333333,1,A
3,5.333333,1,0.333333,1.666667,A
3,4.666667,1,0,2.666667,A
3,5,1,0,1,A
3,6,1,0,2.666667,A
5,4.2,1,0.2,0.8,A
3,6.333333,1,0.333333,2.333333,A
4,4,1,0,1.25,A
4,5,1,0.25,2,A
4,6.75,1,0.75,1.75,A
3,5,1,0.333333,1.666667,A
3,6,1,0.333333,1.333333,A
5,4.8,1,0.2,1.2,A
5,5.6,1,0.4,1.6,A
5,5,1,0.4,1.6,A
5,6.4,1,0.6,1.6,B
5,4.4,1,0.2,1.6,B
5,6.4,1,0.6,1.8,B
5,5.6,1,0.4,1.4,B
4,6.25,1,0.5,2.25,B
6,5,1,0.166667,2.333333,B
5,6,1,0.4,2.4,C
5,4.6,1,0.2,0.6,B
6,4.5,1,0.166667,1.333333,B
6,5.333333,1,0.166667,1.333333,B
4,5.75,1,0.5,2.25,B
6,5.833333,1,0.5,2,B
4,5.75,1,0.5,2.5,B
6,3.666667,1,0,1.666667,B
5,5.8,1,0.2,2.4,B
6,5.666667,1,0.166667,2.166667,B
5,5.6,1,0.4,1.8,B
5,5,1,0,1.8,B
5,5.8,1,0.2,2,B
5,4.4,1,0,1.4,B
5,5,1,0.2,2,B
6,5.333333,1,0.333333,2.333333,B
6,5.166667,1,0.166667,1.833333,B
5,5.4,1,0.4,1.8,B
5,5.2,1,0,1.4,B
4,6.75,1,0.5,2.75,B
5,4.4,1,0,1.6,B
4,7,1,0.75,3,B
5,6.2,1,0.2,2,B
6,5.333333,1,0.333333,2.166667,B
4,5,1,0,2,B
4,5.5,1,0.5,1.25,B
5,6,1,0.4,1.8,B
4,6.75,1,0.75,2.25,B
4,5.5,1,0.25,2,B
4,5,1,0,2,B
5,5,1,0.2,1.8,B
6,6.166667,1,0.5,1.666667,B
5,5.2,1,0.4,1.6,B
5,5.2,1,0.2,2.2,B
3,5.333333,1,0,1.333333,B
4,5.75,1,0.25,2.75,B
4,5,1,0.25,1,B
4,5,1,0,2,B
5,5,1,0,1.4,B
5,5.4,1,0.4,1.2,B
4,5.5,1,0.25,1.75,B
4,5.5,1,0.25,2.25,B
5,6.8,1,0.6,2.2,B
4,6,1,0.25,1.25,B
4,6.5,1,0.5,2.5,B
6,4.5,1,0.166667,0.833333,B
5,4.8,1,0.2,2.2,B
4,6.25,1,0.5,1.5,B
4,5.25,1,0.25,1.5,B
5,6.6,1,0.6,3,B
6,5.666667,1,0.166667,2,B
5,5,1,0.2,2.2,B
5,5.8,1,0.4,2.6,B
6,4.666667,1,0.166667,1.666667,B
3,5.666667,1,0.333333,1.333333,B
5,5.8,1,0.6,2.6,B
4,6.5,1,0.5,2.5,B
5,6.4,1,0.4,3.2,B
6,5.166667,1,0.166667,2.833333,B
5,7,1,0.6,2.4,B
4,6.25,1,0.25,2,B
4,5.5,1,0.5,3.25,B
4,7,1,0.75,3.75,B
6,4.166667,1,0,1.833333,B
3,3.333333,1,0,0.333333,B
4,4.5,1,0.25,2.5,B
3,4.333333,1,0,1,B
5,4.6,1,0.2,1.8,B
4,3.25,1,0,1.25,B
5,4.6,1,0,2,B
5,4.6,1,0.2,1.8,B
4,4,1,0,1.25,B
4,4,1,0,1.25,B
5,3.8,1,0,2.2,B
3,5,1,0,0.333333,B
5,5,1,0.2,1.8,B
5,4.6,1,0.2,1.6,B
6,5.166667,1,0,2.5,B
4,4.75,1,0,1.75,B
4,5.25,1,0.25,2.25,B
5,5.4,1,0.2,2.8,B
4,6,1,0.5,2.5,B
5,5.2,1,0.4,2,B
4,5.25,1,0,2.25,B
6,3.833333,1,0.166667,1.833333,B
5,5.6,1,0.2,1.8,B
5,4.8,1,0.2,2,B
4,5.75,1,0.25,2.25,B
5,5.4,1,0.2,2.8,B
5,6.2,1,0.6,2.8,B
4,4.5,1,0,2.5,B
4,5.25,1,0.25,2,B
5,4.2,1,0.2,1.8,B
5,5.6,1,0.2,2,B
4,6.25,1,0.5,3,B
6,6,1,0.333333,2.333333,B
4,4.75,1,0,0.5,B
4,5.25,1,0.25,1.5,B
6,5.666667,1,0.5,1.666667,B
5,5.8,1,0.4,1.2,B
5,6.6,1,0.4,1.8,B
6,5.333333,1,0.333333,1,B
5,5.6,1,0.4,3.2,B
4,5.5,1,0.5,2.25,B
6,6,1,0.5,2.166667,B
8,5,1,0.25,1.75,B
8,5.625,1,0.25,1.75,B
7,5.142857,1,0.285714,2.571429,B
6,5,1,0,0.666667,B
6,6.5,1,0.5,2.5,B
8,4.875,1,0.25,1.25,B
8,5.375,1,0.25,2,B
6,5,1,0.166667,1.166667,B
9,5,0.888889,0.222222,1.666667,B
8,5.125,1,0,2,B
6,6,1,0.166667,2.833333,B
6,7,1,0.833333,2.333333,B
5,5.4,1,0.2,1.6,B
7,5,1,0.285714,1.428571,B
6,6.166667,1,0.5,2.166667,B
6,6.5,1,0.333333,1.833333,B
7,5.142857,1,0.285714,2.142857,B
6,5.833333,1,0.333333,2,B
6,7.333333,1,0.833333,2.166667,B
8,4.75,1,0,2.625,B
7,6.857143,1,0.571429,1.857143,B
9,5.555556,1,0.444444,2.111111,B
8,5,1,0.125,2.375,B
7,5.428571,1,0.285714,2,B
7,4.857143,1,0.285714,1.571429,B
7,5.142857,1,0.142857,2,B
7,5.142857,1,0.142857,2,B
7,5.571429,1,0.285714,1.714286,B
6,7.333333,1,0.666667,2.333333,B
8,4.5,1,0.125,2,B
6,6.5,1,0.666667,2,B
6,5.166667,1,0,1.833333,B
6,5.666667,1,0.333333,2.333333,B
7,4.714286,1,0,1.857143,B
7,5.714286,1,0.142857,2.142857,B
7,5.857143,1,0.428571,2.285714,B
7,5.285714,1,0.285714,2.142857,B
7,5.714286,1,0.285714,2.571429,B
7,4.857143,1,0.142857,1.714286,B
9,5.222222,1,0.333333,1.555556,B
6,5.666667,1,0.333333,2,B
6,7,1,0.833333,2.166667,B
7,5.285714,1,0.285714,2.285714,B
5,6.4,1,0.6,2,B
6,6.166667,1,0.5,2.5,B
6,6.833333,1,0.5,2.333333,B
6,6.333333,1,0.333333,3.166667,B
6,5.833333,1,0.166667,1.833333,B
7,5.285714,1,0.285714,1.142857,B
7,5.428571,1,0.285714,2,B
7,5.714286,1,0.428571,1.428571,B
6,5.666667,1,0.333333,1.166667,B
7,5.428571,1,0.142857,2.428571,B
7,6.714286,1,0.428571,2.428571,B
6,5.166667,1,0.333333,2,B
6,5.833333,1,0.166667,2.333333,B
7,5.714286,1,0.571429,1.857143,B
9,4.444444,1,0,1.888889,B
8,5.5,1,0.25,2.375,B
7,4.714286,1,0,1.428571,B
8,5,1,0.125,2.375,B
8,5,1,0.125,2.25,B
4.5,4.666667,1,0.222222,2,B
3.5,5,1,0.285714,2.142857,B
3.5,6.428571,1,0.714286,2,B
3,5.833333,1,0.666667,2.333333,B
4.5,4.888889,1,0.222222,2,B
4.5,5,1,0.222222,1.555556,B
4,4.625,1,0.125,2,B
5,5.1,1,0.2,2,B
4,4.875,1,0.125,1.875,B
3.5,4.857143,1,0.142857,2.428571,B
4.5,5.111111,1,0.333333,1.777778,B
4.5,5.222222,1,0.444444,1.666667,B
4,4.25,1,0,1.625,B
4,4.625,1,0.125,2.125,B
5,4.3,1,0.1,1.8,B
4,4.75,1,0.25,2.125,B
4,4.625,1,0.125,1.5,B
6,6.5,1,0.5,2.166667,B
3.5,5.285714,1,0.142857,2,B
4.5,5.555556,1,0.333333,1.444444,B
3.5,4.285714,1,0,1.428571,B
5,4.4,1,0.1,1.5,B
4,4.5,1,0,1.375,B
4.5,5.333333,1,0.444444,1.444444,B
4.5,5.666667,1,0.333333,2.555556,B
5.5,4.545455,1,0.090909,1.272727,B
4,5.25,1,0.125,2.25,B
5,4.7,1,0.3,1.9,B
4,5.125,1,0.375,2.375,B
5,4.7,1,0.2,1.3,B
6,4.083333,1,0,2.083333,B
5,5.2,1,0.2,1.9,B
4,5.375,1,0.375,1.125,B
3.5,6.142857,1,0.428571,1.857143,B
4.5,4.555556,1,0.222222,1,B
4.5,4.555556,1,0.111111,1.555556,B
4,5.5,1,0.25,2,B
4,5,1,0.125,1.75,B
4.5,5,1,0.111111,1.555556,B
3,5,1,0.166667,1.833333,B
4,4.625,1,0,1.5,B
4,5,1,0.125,1.75,B
3.5,4.714286,1,0.142857,2.714286,B
3.5,6,1,0.428571,1.571429,B
3,5.833333,1,0.5,2.333333,B
5,5,1,0.3,1.6,B
4,4.625,1,0.125,2.25,B
3.5,5.285714,1,0,2.285714,B
4,4.625,1,0.125,2.125,B
5,4.8,1,0.1,2,B
3.5,4.571429,1,0.285714,1.571429,B
5.5,4.272727,1,0.090909,1.636364,B
5,5.1,1,0.1,1.8,B
5,5.1,1,0.2,1.9,B
4,5.25,1,0.125,2.5,B
5,5,1,0.2,2.1,B
4,5.75,1,0.375,2,B
4,5.75,1,0.25,2.25,B
4,5.25,1,0.25,1.625,B
4,5.625,1,0.375,1.875,B
4,4.5,1,0.125,2,B
4,4.875,1,0,2.25,B
7,5.285714,1,0.285714,2.142857,B
9,5.333333,1,0.222222,2,B
7,5.285714,1,0.142857,3,B
7,5.428571,1,0.285714,2.428571,B
6,4.5,1,0,1.833333,B
7,6,1,0.571429,2.285714,B
5,5.2,1,0.2,1.8,B
6,6.166667,1,0.5,2.5,B
10,5.6,1,0.4,2.1,B
7,5.285714,1,0.142857,2.428571,B
6,5,1,0.333333,2.333333,B
8,6,1,0.5,2.25,B
9,5.555556,1,0.222222,2.333333,B
7,6,1,0.428571,1.714286,B
8,5.125,1,0.125,1.875,B
10,3.8,0.9,0,2,B
7,5.857143,1,0.285714,3,B
7,5,1,0.285714,2.428571,B
8,5.125,1,0.125,2.5,B
9,5.222222,1,0.222222,2.222222,B
7,6,1,0.285714,1.857143,B
8,5.375,1,0.375,2.5,B
9,4.888889,1,0.111111,1.888889,B
8,6.375,1,0.5,2.5,B
9,5.111111,1,0.333333,2,B
8,5.5,1,0.375,2.875,B
6,5.333333,1,0.5,2.333333,B
6,6,1,0.333333,2.5,B
6,4.833333,1,0.166667,1.666667,B
7,5.428571,1,0.285714,2.857143,B
5,6,1,0.4,2.4,B
6,5.166667,1,0.166667,2.333333,B
5,6,1,0.4,2.2,B
6,5.833333,1,0.333333,2.5,B
8,4.125,1,0.125,1.25,B
6,7,1,0.5,2.166667,B
5,6.2,1,0.2,2,B
7,4.857143,1,0.142857,2.571429,B
5,5.2,1,0,1.8,B
6,5.666667,1,0.333333,2.833333,B
5,6.6,1,0.4,1.6,B
6,6.166667,1,0.5,2.666667,B
8,5.625,1,0.25,2.25,B
7,6.571429,0.857143,0.428571,2.857143,B
7,5.714286,1,0.285714,2.285714,B
7,7,1,0.714286,3,B
8,5.75,1,0.25,2,B
8,5.625,1,0.25,2.125,B
8,5.25,1,0.25,2.125,B
9,5.222222,1,0.222222,1.666667,B
6,5.166667,1,0.166667,1.166667,B
4,4.75,1,0.125,2,B
4,4.625,1,0.125,1.375,B
4,4.375,1,0,1.5,B
5,4.3,1,0,2,B
3,6.166667,1,0.666667,2.333333,B
4,4.75,1,0.375,2.25,B
8,4.5,1,0,2,B
8,4.25,1,0.125,1.5,B
8,4.5,1,0.125,1.375,B
8,4.75,1,0,2.375,B
3.5,4.857143,1,0.142857,1.857143,B
4,4.875,1,0.25,1.75,B
4.5,4,1,0.111111,1.555556,B
3.5,4.428571,1,0.142857,1.571429,B
9,4.555556,1,0.111111,1.666667,B
6,6,1,0.333333,2.166667,B
6,4.166667,1,0,1.833333,B
8,3.75,1,0,1.25,B
5,7.8,1,0.8,2.6,B
8,4.625,1,0.25,2,B
10,4,1,0.1,1.7,B
8,4.625,1,0.125,1.625,B
6,5.833333,1,0.333333,2.5,B
7,5.142857,1,0.285714,2,B
7,4.714286,1,0,2.285714,B
4.5,4.333333,1,0.111111,1.777778,B
4,4.5,1,0.25,1.25,B
5,5.8,0.9,0.6,2.4,B
4.5,5.777778,1,0.444444,2.555556,B
5.5,5.090909,1,0.272727,1.727273,B
5,4.3,1,0.1,1.8,B
3.5,5.428571,1,0.285714,1.714286,B
4,5.625,1,0.375,2.75,B
9,5.333333,1,0.222222,1.777778,B
4,5.625,1,0.375,1.75,B
3.5,4.714286,1,0.142857,1.857143,B
5.5,4.909091,1,0.090909,1.727273,B
3.5,5,1,0,2.285714,B
4.5,4.555556,1,0,2.333333,B
4,4.125,1,0,1.625,B
4.5,4.666667,1,0.222222,1.666667,B
4.5,4.666667,1,0.111111,2.222222,B
3,4.5,1,0,1.666667,B
4,4.25,1,0,1.875,B
4.5,5.333333,1,0.444444,1.555556,B
5,4.9,1,0.1,2.6,B
4.5,4.333333,1,0.111111,1.888889,B
4.5,5,1,0.333333,2.111111,B
3.5,4.285714,1,0,2,B
7,5.857143,1,0.285714,1.428571,B
9,5.444444,1,0.222222,1.666667,B
8,5.25,1,0.125,2.25,B
7,5.857143,1,0.142857,1.428571,B
7,6.428571,1,0.285714,2.857143,B
8,5,1,0.125,1.625,B
7,6.285714,1,0.285714,2,B
7,6.714286,1,0.571429,2.857143,B
7,6,1,0.428571,1.857143,B
9,5.333333,1,0.333333,1.777778,B
8,6.125,1,0.5,2.125,B
7,6.285714,1,0.142857,2.571429,B
9,5,1,0.111111,1.555556,B
7,6.142857,1,0.285714,2,B
7,6,1,0.285714,2.142857,B
8,5.625,1,0.375,2.25,B
9,5.333333,1,0.222222,1.777778,B
7,5.714286,1,0.428571,2,B
8,4.25,1,0,1.125,B
7,4,1,0,2,B
8,5.875,1,0.25,1.875,B
8,5,1,0.125,2.375,B
7,6.285714,1,0.285714,2.571429,B
6,5.166667,1,0,1.5,B
7,5.428571,1,0.285714,2.142857,B
7,5.714286,1,0.142857,2,B
8,5.625,1,0.125,2,B
7,5,1,0,2,B
9,5.111111,1,0.222222,1.666667,B
7,5.857143,1,0.571429,2.428571,B
7,5.857143,1,0.285714,2.285714,B
7,4.857143,1,0.142857,1.142857,B
7,5.142857,1,0,2.142857,B
6,5.5,1,0.333333,1.833333,B
8,5.5,1,0.25,2.5,B
7,5.714286,1,0,2.285714,B
9,4,1,0,1.333333,B
7,7.142857,1,0.571429,2.428571,B
7,4.857143,1,0.142857,2,B
7,5.285714,1,0.285714,2,B
7,6,1,0.428571,2.142857,B
9,4.888889,1,0,1.555556,B
7,5.571429,1,0.142857,2.428571,B
8,6.5,1,0.5,1.75,B
9,4.222222,1,0.111111,1.555556,B
7,6.428571,1,0.571429,2.142857,B
9,5.333333,1,0.333333,2.222222,B
7,6.428571,1,0.428571,2.571429,B
8,5.75,1,0.5,2.25,B
9,5,1,0,1.555556,B
8,5.75,0.875,0.25,2.25,B
8,5,1,0.25,2.5,B
9,5.222222,1,0,1.111111,B
7,5.714286,1,0.142857,2,B
7,5.285714,1,0.142857,1.571429,B
7,5.428571,1,0.142857,2.142857,B
8,6.25,1,0.5,2.125,B
8,5,1,0.125,2.875,B
7,6.714286,1,0.714286,2.285714,B
8,4.75,1,0,2.5,B
6,5.833333,1,0.333333,1.333333,B
7,4.857143,1,0.142857,1.714286,B
8,5.625,1,0.25,2,B
7,5.714286,1,0.428571,1.571429,B
8,5.375,1,0.25,1.25,B
9,5.777778,1,0.333333,1.777778,B
8,6,1,0.25,2.375,B
8,6.125,1,0.375,1.875,B
7,6.857143,1,0.714286,2.142857,B
8,5.375,1,0.25,2.125,B
9,5.666667,1,0.222222,2.444444,B
7,6.142857,1,0.428571,1.857143,B
7,5.857143,1,0.285714,2,B
6,6.166667,1,0.666667,2.5,B
8,5.375,1,0.375,2.875,B
6,7,1,0.666667,1.666667,B
9,6,1,0.333333,2,B
9,7,1,0.666667,2.222222,B
7,6.142857,1,0.571429,2.428571,B
8,6.25,1,0.375,2.75,B
8,5.5,1,0.375,2.25,B
7,6.285714,1,0.428571,2.428571,B
7,6.571429,1,0.428571,2,B
8,5.875,1,0.5,2.125,B
7,6.857143,1,0.714286,2.714286,B
8,6.625,1,0.75,2.5,B
8,5.75,1,0.125,2.875,B
7,7,1,0.571429,3,B
9,5,1,0.111111,1.888889,B
6,6.166667,1,0.333333,2.5,B
9,5.777778,1,0.333333,1.777778,B
6,6.333333,1,0.5,2.833333,B
7,5.428571,1,0.285714,1.571429,B
8,6.25,1,0.5,2.75,B
7,6.857143,1,0.857143,3,B
7,6.142857,1,0.285714,1.714286,B
8,6,1,0.375,2,B
6,4.5,1,0,2.166667,B
7,6,1,0.285714,1.714286,B
8,6,1,0.5,2.75,B
8,6.375,1,0.5,2.125,B
7,6.285714,1,0.428571,2.571429,B
7,6.428571,1,0.428571,3.142857,B
8,6.125,1,0.25,2.125,B
6,5.833333,1,0.333333,3,B
8,6.25,1,0.25,1.75,B
7,5.285714,1,0.142857,2.428571,B
8,5.375,1,0.25,1.75,B
7,5.142857,1,0.142857,1.714286,B
7,5.142857,1,0.142857,1.857143,B
7,5.428571,1,0.142857,1.857143,B
8,5.125,1,0.375,2.125,B
7,5.428571,1,0.285714,1.714286,B
7,5.571429,1,0.285714,1.857143,B
7,5.285714,1,0,2.142857,B
8,5,1,0,1.875,B
8,5.625,1,0.25,1.875,B
9,5.111111,1,0.222222,2.333333,B
8,5.5,1,0,1.875,B
8,6,1,0.5,2.5,B
8,4.75,1,0.125,2.375,B
7,6.857143,1,0.714286,1.857143,B
8,4.875,1,0.25,1.125,B
7,5.571429,1,0.142857,1.428571,B
5,7.4,1,0.8,2.6,B
8,5.25,1,0.125,1.75,B
8,5.625,1,0.375,1.625,B
7,5.714286,1,0.428571,1.428571,B
7,5,1,0.285714,2.142857,B
8,5.875,1,0.375,1.125,B
9,5.666667,1,0.111111,1.555556,B
8,6.375,1,0.5,1.625,B
8,6,1,0.375,2.125,B
8,5.75,1,0.25,1.875,B
8,6.75,1,0.5,2.125,B
7,6.428571,1,0.571429,1.571429,B
8,4.875,1,0.125,1.25,B
7,5,1,0.142857,2.571429,B
8,6.375,1,0.5,1.875,B
6,7.333333,1,0.666667,2,B
9,6.555556,1,0.555556,2.111111,B
7,6.714286,1,0.428571,2.571429,B
9,5.111111,1,0.111111,1.888889,B
8,6.625,1,0.625,1.75,B
7,7.142857,1,0.714286,3.142857,B
7,6.142857,1,0.428571,1.857143,B
7,5.857143,1,0.428571,2.857143,B
8,5,1,0.25,2,B
8,5.875,1,0.375,2.25,B
10,5.9,1,0.5,1.9,B
11,5,1,0.272727,1.909091,B
9,4.777778,1,0,1.555556,B
6,6.666667,1,0.5,2.166667,B
8,6,1,0.375,1.875,B
8,6.5,1,0.5,1.375,B
7,5.142857,1,0.285714,2.857143,B
8,6.875,1,0.625,2.125,B
6,7.166667,1,0.666667,2.666667,B
7,6.142857,1,0.428571,2.285714,B
8,5.875,1,0.375,1.625,B
9,6.111111,1,0.444444,2.333333,B
8,4.625,1,0.25,1.375,B
7,6.428571,1,0.428571,2,B
8,5.5,1,0.5,2.875,B
7,6.714286,1,0.571429,2.714286,B
7,5.714286,1,0.285714,2.857143,B
8,6,1,0.25,2.5,B
10,5.9,1,0.4,2.8,B
7,6,1,0.285714,2.285714,B
8,6.125,1,0.375,2.875,B
7,5.714286,1,0.428571,2.857143,B
8,6.875,1,0.375,2.375,B
8,6.5,1,0.5,2.5,B
7,7.428571,1,0.571429,3.571429,B
8,6.25,1,0.375,1.625,B
8,6.75,1,0.625,2.625,B
7,6.428571,1,0.428571,2.285714,B
10,5.2,1,0.2,2.4,B
8,6.625,1,0.5,2.5,B
9,6.222222,1,0.333333,2.222222,B
6,6.833333,1,0.666667,2.333333,B
7,5.428571,1,0.285714,1.857143,B
6,7,1,0.666667,3,B
8,5.75,1,0.375,2.125,B
7,5.428571,1,0.428571,2.142857,B
6,6.833333,1,0.666667,3,B
9,5.222222,1,0.333333,2.222222,B
9,5.111111,1,0.222222,1.333333,B
9,4.888889,1,0.333333,1.777778,B
7,6.428571,1,0.714286,2.428571,B
8,7.125,1,0.625,2.5,B
8,6,1,0.5,2.75,B
7,5.714286,1,0.285714,2,B
9,5.555556,1,0.222222,1.555556,B
9,5.666667,1,0.444444,1.333333,B
11,6.454545,1,0.363636,1.909091,C
13,6.384615,1,0.461538,2.384615,C
14,5.285714,1,0.142857,1.642857,C
14,6.071429,0.928571,0.5,1.785714,C
15,5.8,1,0.2,1.733333,C
14,5.357143,1,0.142857,1.928571,C
14,5.428571,1,0.428571,1.714286,C
13,6.307692,1,0.307692,2.076923,C
12,6.25,1,0.5,2.083333,C
15,4.866667,1,0.2,1.8,C
12,5.916667,1,0.333333,2,C
13,6.692308,1,0.615385,2.153846,C
14,5.785714,0.928571,0.357143,2.071429,C
13,6.076923,1,0.384615,1.923077,C
12,6.25,1,0.416667,2.5,C
14,5.857143,1,0.357143,1.928571,C
16,5.5625,1,0.3125,1.75,C
10,6.9,1,0.7,2.5,C
14,6,1,0.214286,1.428571,C
14,5.785714,1,0.5,1.785714,C
12,5.916667,1,0.25,1.916667,C
11,7.090909,1,0.727273,2,C
19,5.157895,1,0.210526,1.368421,C
12,5.916667,1,0.416667,1.583333,C
15,5.6,1,0.266667,2,C
13,6.307692,1,0.461538,2.153846,C
17,5.176471,1,0.294118,2,C
12,7.333333,1,0.75,2.666667,C
12,5.666667,1,0.333333,2.166667,C
18,5.277778,1,0.277778,1.833333,C
13,5.538462,1,0.384615,1.923077,C
13,6.538462,1,0.461538,1.846154,C
14,5.214286,1,0.142857,2.214286,C
16,5.125,1,0.25,1.75,C
14,6.142857,1,0.428571,2.5,C
15,5.933333,1,0.266667,2.2,C
12,6.25,1,0.416667,2.166667,C
13,6.384615,1,0.538462,1.692308,C
13,6.461538,1,0.615385,2.384615,C
14,5.071429,1,0.214286,1.571429,C
12,5.333333,1,0.25,1.5,C
11,7,1,0.727273,2.181818,C
14,6.214286,1,0.5,1.785714,C
14,6.071429,1,0.5,1.571429,C
11,7,1,0.636364,1.727273,C
14,5,1,0.285714,1.714286,C
14,5.214286,1,0.142857,2.357143,C
13,5.461538,1,0.230769,1.615385,C
11,6.454545,1,0.454545,2.363636,C
13,6,1,0.461538,1.384615,C
15,6.133333,1,0.333333,1.866667,C
16,5.375,1,0.0625,2.4375,C
15,6,1,0.333333,2.266667,C
18,5,1,0.222222,2.111111,C
15,6.133333,1,0.466667,2.066667,C
15,5.266667,1,0.133333,1.8,C
17,5.352941,1,0.294118,1.882353,C
12,6.5,1,0.583333,2.333333,C
13,5.615385,1,0.230769,2.076923,C
12,6.333333,1,0.583333,2.5,C
15,6,1,0.333333,2.066667,C
15,5.733333,1,0.266667,1.933333,C
16,5.875,0.9375,0.375,2,C
14,6.142857,1,0.5,2,C
15,5.466667,1,0.266667,1.733333,C
14,6.142857,1,0.214286,2.571429,C
17,5.352941,1,0.235294,2,C
15,5.266667,1,0.266667,1.533333,C
15,5.666667,1,0.266667,2.266667,C
15,5.533333,1,0.333333,1.8,C
14,6.642857,1,0.5,2.071429,C
16,5.3125,1,0.1875,1.8125,C
13,6,1,0.384615,2.230769,C
14,5.785714,1,0.357143,2.214286,C
13,6.153846,1,0.461538,2.384615,C
18,5.277778,1,0.222222,1.777778,C
15,5.866667,1,0.266667,1.933333,C
14,5.857143,1,0.357143,1.5,C
17,5.411765,1,0.294118,1.470588,C
20,4.9,1,0.1,1.95,C
20,5.5,1,0.25,2.15,C
15,6.133333,1,0.4,2.466667,C
16,5.875,1,0.3125,2,C
17,5.529412,1,0.235294,1.588235,C
15,5.933333,0.933333,0.4,2.266667,C
14,5.714286,1,0.285714,1.5,C
13,5.923077,1,0.384615,2.076923,C
16,5.8125,1,0.4375,2.5625,C
16,5.875,1,0.375,2.0625,C
17,5.352941,1,0.294118,1.352941,C
15,5.133333,1,0.2,1.8,C
18,4.666667,0.944444,0.055556,2.166667,C
15,5.866667,1,0.4,1.866667,C
18,5.666667,1,0.333333,2.055556,C
15,5.733333,1,0.333333,1.466667,C
20,5.9,1,0.35,2.1,C
19,5.526316,1,0.315789,2.315789,C
19,6,1,0.421053,2.052632,C
19,5.421053,1,0.315789,2.263158,C
19,6.368421,1,0.473684,2.526316,C
20,5.25,1,0.2,2.4,C
18,5.777778,1,0.333333,2.166667,C
19,5.157895,1,0.210526,2,C
19,5.368421,1,0.210526,2,C
20,5.6,1,0.2,2,C
16,5.75,1,0.25,1.875,C
19,5.526316,1,0.210526,1.789474,C
17,5.647059,1,0.235294,2.411765,C
16,6,1,0.4375,2.375,C
17,5.470588,1,0.294118,1.941176,C
19,5.368421,1,0.210526,2.105263,C
19,5.526316,1,0.157895,1.684211,C
16,5.125,1,0.3125,2.125,C
19,5.368421,1,0.263158,2.157895,C
17,5.588235,1,0.235294,2.058824,C
13,6.307692,1,0.461538,2.384615,C
16,5.875,1,0.5,2,C
13,6.615385,1,0.461538,2.461538,C
13,6.307692,1,0.384615,2.307692,C
16,5.3125,1,0.25,1.5,C
15,5.866667,1,0.333333,2,C
20,5.05,0.95,0.2,1.85,C
16,5.875,1,0.4375,2.3125,C
16,5.4375,1,0.1875,1.6875,C
16,5.25,1,0.1875,1.875,C
16,5.625,1,0.4375,2.3125,C
14,5.928571,1,0.285714,2.285714,C
15,7.066667,1,0.533333,2.733333,C
15,5.666667,1,0.333333,2.133333,C
15,5.333333,1,0.266667,1.866667,C
18,5.222222,1,0.111111,2.333333,C
17,7.058824,0.941176,0.705882,2.705882,C
17,5.117647,1,0.176471,1.647059,C
17,5.882353,1,0.294118,2.176471,C
16,5.875,1,0.3125,1.875,C
16,6,0.9375,0.3125,2.375,C
15,6,1,0.266667,2.2,C
19,5.105263,0.947368,0.263158,1.894737,C
14,6.214286,1,0.428571,1.785714,C
14,6.571429,1,0.571429,2.785714,C
16,5.6875,1,0.1875,1.8125,C
14,6.214286,1,0.571429,1.928571,C
14,6.785714,1,0.571429,2.571429,C
16,5.8125,1,0.375,1.875,C
16,6.1875,1,0.4375,1.9375,C
17,5.882353,1,0.352941,2.235294,C
18,4.944444,1,0.111111,1.888889,C
16,6.75,1,0.5625,2.4375,C
18,6.111111,1,0.5,2.166667,C
15,5.666667,1,0.2,1.8,C
13,5.384615,1,0.153846,2.307692,C
15,4.8,1,0.133333,1.733333,C
15,5.333333,1,0.2,2.066667,C
16,5.5625,1,0.25,1.625,C
14,6.071429,1,0.357143,2.214286,C
15,5.333333,1,0.2,1.666667,C
19,4.894737,1,0.105263,1.842105,C
15,4.933333,1,0.2,1.933333,C
15,6.066667,1,0.4,2.533333,C
13,6.076923,1,0.461538,2.692308,C
16,5.375,1,0.1875,2.125,C
14,6.357143,1,0.5,2,C
14,6.285714,1,0.428571,1.785714,C
14,5.714286,1,0.285714,2.5,C
14,5.571429,1,0.285714,2.5,C
17,5.529412,1,0.235294,2.176471,C
15,6.133333,1,0.466667,1.866667,C
14,5.857143,1,0.428571,2.142857,C
17,5.647059,1,0.176471,1.647059,C
16,5.6875,1,0.25,2.5,C
16,5.9375,1,0.1875,2.6875,C
17,4.882353,1,0.117647,2.117647,C
16,5.5,1,0.1875,2,C
16,5.375,1,0.1875,2.125,C
13,6.076923,1,0.307692,2.461538,C
16,5.625,1,0.375,2.25,C
16,5.5,1,0.125,2.1875,C
15,5.2,1,0.133333,1.933333,C
16,6.0625,1,0.375,2.5625,C
16,5.75,1,0.3125,2.3125,C
17,5.941176,0.941176,0.411765,2.058824,C
18,5.666667,0.944444,0.277778,2.388889,C
19,5.210526,0.947368,0.210526,2.105263,C
16,6.3125,1,0.4375,1.6875,C
17,5.529412,1,0.235294,1.352941,C
14,6.857143,1,0.571429,2.5,C
17,5.352941,1,0.411765,1.470588,C
17,6,1,0.411765,1.823529,C
17,5.588235,1,0.117647,1.941176,C
17,5.882353,1,0.411765,2.176471,C
18,5.555556,1,0.277778,1.777778,C
19,5,0.894737,0.157895,2.368421,C
17,5.705882,1,0.411765,2.411765,C
15,6.333333,1,0.4,2.4,C
16,6.4375,1,0.5,3.125,C
18,5.166667,0.944444,0.277778,1.722222,C
20,5.1,0.95,0.2,1.3,C
23,5.304348,0.913043,0.217391,1.391304,C
19,5.789474,0.947368,0.421053,2.473684,C
21,4.952381,1,0.190476,1.809524,C
19,5.684211,1,0.421053,2.263158,C
17,5.764706,1,0.529412,2.294118,C
22,5.272727,1,0.318182,1.409091,C
22,5.954545,0.863636,0.545455,2.045455,C
20,5.45,0.95,0.4,1.95,C
17,6.647059,1,0.411765,1.529412,C
20,5.4,1,0.25,2.25,C
17,6.294118,1,0.470588,1.941176,C
15,6.333333,0.933333,0.466667,2.333333,C
17,5.823529,1,0.352941,2.058824,C
18,5.111111,0.944444,0.166667,1.611111,C
23,5.086957,1,0.26087,2.173913,C
19,5.105263,1,0.105263,2.052632,C
22,5,0.954545,0.227273,2.227273,C
23,5.043478,1,0.173913,1.565217,C
11.5,5.130435,1,0.217391,1.869565,C
18,5.611111,0.944444,0.333333,2.055556,C
20,5.35,0.95,0.25,2.1,C
21,5.666667,1,0.333333,1.809524,C
7,5.857143,1,0.285714,1.714286,C
12,5.083333,1,0.25,2.083333,B
12,4.666667,1,0,1.666667,B
9,6,1,0.222222,1.666667,B
9,5.333333,1,0.222222,2,B
10,5.1,1,0.2,1.6,B
9,6.222222,1,0.555556,2,B
7,6.142857,1,0.571429,1.714286,B
12,4.833333,1,0,1.75,B
8,6.5,1,0.5,3.125,B
9,5.666667,1,0.333333,1.555556,B
9,6.333333,1,0.444444,1.888889,B
12,5.083333,1,0.25,2.083333,B
12,4.666667,1,0,1.666667,B
9,6,1,0.222222,1.666667,B
9,5.333333,1,0.222222,2,B
10,5.1,1,0.2,1.6,B
9,6.222222,1,0.555556,2,B
7,6.142857,1,0.571429,1.714286,B
12,4.833333,1,0,1.75,B
8,6.5,1,0.5,3.125,B
9,5.666667,1,0.333333,1.555556,B
3,3.666667,1,0,0.666667,A
3,3.666667,1,0,1.333333,A
3,3.666667,1,0,1.333333,A
2,4,1,0,2,A
4,5.5,1,0.25,1.5,A
3,4,1,0,0,A
2,6,1,0.5,3,A
4,5.5,1,0.25,1.5,A
5,5,1,0.2,2,A
3,3.666667,1,0,1,A
3,4,1,0,0,A
3,3.666667,1,0,0.666667,A
3,4.333333,1,0,0.333333,A
3,3.333333,1,0,0.333333,A
4,5.25,1,0.25,1.25,A
3,4,1,0,1,A
4,5.25,1,0.25,1.25,A
2,5,1,0.5,1.5,A
4,5.5,1,0.25,1.5,A
4,5.25,1,0.25,1.25,A
3,3.666667,1,0,1,A
3,3.666667,1,0,1,A
2,4.5,1,0,1.5,A
3,4.333333,1,0,0.333333,A
3,4,1,0,0,A
3,4.333333,1,0,0.333333,A
3,4.666667,1,0.333333,1,A
3,3.666667,1,0,1.333333,A
2,4.5,1,0,1.5,A
3,3.666667,1,0,1.333333,A
2,6,1,0.5,3,A
3,3.666667,1,0,1.333333,A
3,3.666667,1,0,1.333333,A
3,3.666667,1,0,0.666667,A
3,3.666667,1,0,1.333333,A
2,5,1,0.5,1.5,A
2,5,1,0.5,1.5,A
3,3.666667,1,0,1.333333,A
2,5,1,0.5,1.5,A
3,3.666667,1,0,1,A
5,5.4,1,0.2,1.6,A+
5,5.6,1,0.2,1.8,A+
5,4.8,1,0.2,1.4,A+
5,4.4,1,0,1.4,A+
5,4.4,1,0,1.4,A+
5,4.2,1,0,1.2,A+
5,5.2,1,0.2,1.2,A+
6,5.166667,1,0.166667,2.166667,A+
6,5.166667,1,0.166667,2.166667,A+
5,5.2,1,0.2,1.2,A+
5,5.4,1,0.2,1.6,A+
5,5.2,1,0.2,1,A+
5,5.6,1,0.2,1.8,A+
5,4.4,1,0,1.4,A+
6,4.666667,1,0.166667,2.166667,A+
6,4.833333,1,0.166667,2,A+
5,5.4,1,0.2,1.6,A+
5,4.6,1,0,1.4,A+
6,3.833333,1,0,1.833333,A+
5,4.4,1,0,1.4,A+
6,5.166667,1,0.166667,2.166667,A+
5,5.2,1,0.2,1,A+
6,3.666667,1,0,1.833333,A+
5,4.8,1,0.2,1.6,A+
5,4.4,1,0,1.4,A+
5,4.4,1,0,1.4,A+
5,4.8,1,0,1.6,A+
5,5.2,1,0.2,1,A+
5,5.2,1,0.2,1,A+
6,3.666667,1,0,1.833333,A+
5,4.8,1,0,1.6,A+
5,5.2,1,0.2,1,A+
5,4.8,1,0.2,1.4,A+
5,5.2,1,0.2,2.2,A+
6,3.833333,1,0,1.833333,A+
5,5.6,1,0.2,1.8,A+
5,4.6,1,0,1.4,A+
6,3.666667,1,0,2,A+
5,5.6,1,0.2,1.8,A+
6,3.666667,1,0,1.833333,A+
10,4.4,1,0.1,1.3,B
9,3.888889,1,0,1,B
8,3.75,1,0,0.875,B
9,4,1,0.111111,1.777778,B
9,4.333333,1,0.111111,1.222222,B
10,4.3,1,0.1,1.8,B
10,4.9,1,0.2,1.6,B
9,3.888889,1,0,1.666667,B
10,4.3,1,0.1,1.5,B
8,3.75,1,0,0.875,B
9,4.333333,1,0.222222,1.666667,B
10,4.8,1,0.1,1.6,B
10,4.6,1,0.2,1.5,B
9,4.333333,1,0.222222,1.666667,B
10,4.4,1,0.1,1.3,B
10,4.5,1,0.2,1.5,B
10,3.9,1,0,1.4,B
10,4.9,1,0.2,1.5,B
9,4.222222,1,0.111111,1.444444,B
9,4.111111,1,0.111111,1.777778,B
10,4.3,1,0,1.7,B
8,4,1,0,1.25,B
9,4.222222,1,0.222222,1.555556,B
10,4.4,1,0.1,1.4,B
9,3.888889,1,0.111111,1.777778,B
10,4.1,1,0,1.5,B
10,4.2,1,0.1,1.6,B
8,3.75,1,0,0.875,B
9,4.222222,1,0.111111,1.666667,B
8,4,1,0,1.25,B
8,4,1,0,1.25,B
10,4,1,0,1.5,B
9,4.222222,1,0.111111,1.666667,B
9,4.333333,1,0.111111,1.222222,B
10,4.9,1,0.2,1.5,B
9,4.111111,1,0.111111,1.777778,B
8,3.875,1,0,1.125,B
10,4.3,1,0.1,1.5,B
9,4.333333,1,0.111111,1.444444,B
10,4.5,1,0.2,1.6,B
17,5.647059,1,0.411765,2.176471,B+
12,5.916667,1,0.583333,2,B+
12,5.833333,1,0.583333,2.083333,B+
18,5.388889,1,0.222222,1.555556,B+
13,5.769231,1,0.538462,2.538462,B+
17,5.058824,1,0.176471,1.882353,B+
18,5.722222,1,0.277778,2.055556,B+
13,6,1,0.615385,2.230769,B+
17,5.882353,1,0.470588,2.176471,B+
17,5.117647,0.941176,0.176471,1.764706,B+
17,6,1,0.470588,2.176471,B+
18,6.222222,1,0.5,2.055556,B+
18,5.444444,0.944444,0.277778,1.833333,B+
18,5.611111,1,0.277778,1.888889,B+
18,6.166667,1,0.5,2.055556,B+
18,5.555556,1,0.277778,1.722222,B+
18,5.333333,1,0.222222,1.611111,B+
18,6.111111,1,0.5,2,B+
12,5.666667,1,0.5,2.083333,B+
17,5.823529,1,0.470588,2.352941,B+
13,5.923077,1,0.615385,2.230769,B+
18,6,1,0.5,2.111111,B+
18,5.944444,1,0.444444,2,B+
13,5.923077,1,0.615385,2.230769,B+
18,6.222222,1,0.5,2.166667,B+
17,5.941176,1,0.470588,2.176471,B+
18,5.888889,1,0.444444,2,B+
13,6.076923,1,0.538462,2.461538,B+
17,5.764706,1,0.411765,2.176471,B+
13,5.923077,1,0.615385,2.307692,B+
18,5.388889,1,0.222222,1.722222,B+
18,6.111111,1,0.5,2.222222,B+
17,5.882353,1,0.470588,2.176471,B+
18,5.333333,1,0.222222,1.444444,B+
12,6.25,1,0.583333,2.166667,B+
18,6,1,0.444444,2.166667,B+
12,6.166667,1,0.583333,2.25,B+
18,6.166667,1,0.5,2,B+
18,6.166667,1,0.5,2,B+
12,5.75,1,0.5,2.083333,B+
18,6.388889,1,0.5,2.222222,C
18,5.944444,1,0.388889,2.111111,C
19,6.315789,0.947368,0.421053,2.105263,C
19,6.473684,1,0.526316,2.263158,C
24,6.333333,0.958333,0.5,2.166667,C
19,6.263158,0.947368,0.421053,2.263158,C
19,6.315789,0.947368,0.421053,2.105263,C
24,6.333333,0.958333,0.5,2.333333,C
18,5.833333,1,0.388889,2.111111,C
19,6.157895,1,0.473684,2.263158,C
15,6.066667,1,0.6,2.133333,C
15,6.066667,1,0.533333,2.133333,C
19,6.052632,1,0.421053,2.157895,C
24,6.166667,0.958333,0.458333,2.125,C
15,6.333333,1,0.533333,2.066667,C
23,6.304348,0.956522,0.478261,2.173913,C
24,6.541667,0.958333,0.541667,2.208333,C
15,5.933333,1,0.533333,2.133333,C
15,6,1,0.6,2.133333,C
15,6.133333,1,0.533333,2.066667,C
15,6,1,0.533333,2.133333,C
15,6.2,1,0.533333,2.066667,C
18,6.277778,1,0.5,1.944444,C
23,6.217391,0.956522,0.434783,1.956522,C
15,6.133333,1,0.6,2.066667,C
24,6.541667,0.958333,0.541667,2.166667,C
15,5.8,1,0.533333,2.2,C
19,6.473684,1,0.526316,2.368421,C
24,6.333333,0.958333,0.5,2.166667,C
15,6.133333,1,0.466667,2.133333,C
15,6.2,1,0.533333,2.066667,C
19,6.263158,0.947368,0.421053,2.157895,C
23,6.347826,0.956522,0.521739,2,C
19,5.894737,1,0.368421,2.157895,C
18,6.333333,1,0.5,2.166667,C
19,5.842105,1,0.368421,2.210526,C
23,6.434783,0.956522,0.565217,2.26087,C
24,6.291667,0.958333,0.5,2.208333,C
15,6.2,1,0.533333,2.133333,C
19,5.631579,1,0.368421,2,C
2,4,1,0,2,A
2,4,1,0,2,A
4,5.25,1,0.25,1.25,A
3,3.666667,1,0,1.333333,A
4,5.5,1,0.25,1.5,A
3,4,1,0,0,A
3,4.333333,1,0,0.333333,A
3,4.666667,1,0.333333,1,A
3,4.333333,1,0,0.333333,A
2,6,1,0.5,3,A
3,4.666667,1,0.333333,1,A
2,4,1,0,2,A
2,5,1,0.5,1.5,A
3,4.333333,1,0,0.333333,A
2,6,1,0.5,3,A
3,3.666667,1,0,0.666667,A
3,3.666667,1,0,0.666667,A
3,4,1,0,1,A
4,5.25,1,0.25,1.25,A
2,4.5,1,0,1.5,A
2,4.5,1,0,1.5,A
3,4,1,0,0,A
3,4,1,0,1,A
3,4.666667,1,0.333333,1,A
2,4,1,0,2,A
2,4,1,0,2,A
3,3.666667,1,0,1.333333,A
3,3.666667,1,0,1.333333,A
3,3.666667,1,0,0.666667,A
3,3.333333,1,0,0.333333,A
3,3.666667,1,0,1.333333,A
3,3.333333,1,0,0.333333,A
4,5.25,1,0.25,1.25,A
3,4.333333,1,0,0.333333,A
3,4.666667,1,0.333333,1,A
4,5.5,1,0.25,1.5,A
3,3.666667,1,0,1,A
3,4.666667,1,0.333333,1,A
3,3.666667,1,0,1.333333,A
4,5.25,1,0.25,1.25,A
5,5.6,1,0.2,1.8,A+
6,4,1,0,1.833333,A+
5,4.8,1,0,1.6,A+
5,4.4,1,0,1.4,A+
5,5.2,1,0.2,1,A+
5,5.4,1,0.2,1.2,A+
6,5.166667,1,0.166667,2.166667,A+
6,3.833333,1,0,1.833333,A+
5,5.2,1,0.2,1,A+
5,4.2,1,0,1.2,A+
6,3.833333,1,0,1.833333,A+
5,5.2,1,0.2,1.2,A+
5,5.6,1,0.2,1.8,A+
5,4.2,1,0,1.2,A+
5,5.2,1,0.2,1.2,A+
5,4.8,1,0,1.6,A+
5,5.4,1,0.2,1.2,A+
6,3.666667,1,0,2,A+
6,4.833333,1,0.166667,2,A+
5,4.4,1,0,1.4,A+
5,5.6,1,0.2,1.8,A+
6,3.666667,1,0,1.833333,A+
5,4.8,1,0.2,1.4,A+
5,5.2,1,0.2,1.2,A+
6,4.833333,1,0.166667,2,A+
6,3.833333,1,0,1.833333,A+
6,4,1,0,1.833333,A+
5,5.4,1,0.2,1.2,A+
6,5.166667,1,0.166667,2.166667,A+
5,4.6,1,0,1.4,A+
5,4.8,1,0.2,1.4,A+
5,4.4,1,0,1.4,A+
5,4.6,1,0,1.4,A+
5,4.4,1,0,1.4,A+
5,4.8,1,0.2,1.6,A+
5,4.6,1,0,1.4,A+
5,5.2,1,0.2,1.2,A+
5,4.4,1,0,1.4,A+
6,3.666667,1,0,1.833333,A+
6,4.166667,1,0,1.666667,A+
10,4.2,1,0.1,1.6,B
9,4.111111,1,0,1.333333,B
10,4.2,1,0.1,1.7,B
9,4.444444,1,0.222222,1.333333,B
9,4.333333,1,0.222222,1.777778,B
9,4,1,0.111111,1.666667,B
9,4.333333,1,0.111111,1.222222,B
8,3.875,1,0,1.125,B
9,4.222222,1,0.111111,1,B
10,4.4,1,0.1,1.4,B
10,4.9,1,0.2,1.5,B
9,4.444444,1,0.111111,1.333333,B
10,4.9,1,0.2,1.6,B
10,4.9,1,0.2,1.5,B
10,4,1,0,1.7,B
8,4,1,0,1.25,B
11,4.272727,1,0.090909,1.454545,B
10,4.3,1,0.1,1.6,B
10,4.8,1,0.1,1.6,B
10,4.9,1,0.2,1.5,B
10,4.3,1,0,1.5,B
10,4.6,1,0.1,1.6,B
11,4.272727,1,0.090909,1.454545,B
9,4.333333,1,0.111111,1.222222,B
9,4.333333,1,0.222222,1.555556,B
10,4.6,1,0.1,1.6,B
8,4,1,0,1.25,B
9,4.222222,1,0.111111,1.666667,B
10,4.9,1,0.2,1.5,B
8,4,1,0,1.25,B
10,4.8,1,0.1,1.6,B
9,4,1,0.111111,1.666667,B
10,4.9,1,0.2,1.6,B
9,4.222222,1,0.111111,1,B
10,4.3,1,0.1,1.5,B
10,4.3,1,0.1,1.5,B
9,4.333333,1,0.111111,1.444444,B
10,4.6,1,0.2,1.4,B
11,4.272727,1,0.090909,1.454545,B
10,4.3,1,0.1,1.5,B
18,5.444444,1,0.277778,1.555556,B+
13,5.769231,1,0.461538,2.384615,B+
18,6.055556,1,0.5,2.055556,B+
17,5.058824,1,0.176471,1.705882,B+
13,6,1,0.615385,2.230769,B+
17,5.823529,1,0.470588,2.352941,B+
18,6.055556,1,0.5,2.166667,B+
18,5.444444,1,0.222222,1.777778,B+
17,6,1,0.470588,2.294118,B+
17,5.176471,1,0.235294,1.705882,B+
18,5.444444,1,0.222222,1.777778,B+
18,6.166667,1,0.5,2.055556,B+
18,6.222222,1,0.5,2.055556,B+
18,6,1,0.444444,2.055556,B+
17,5.764706,1,0.411765,2.176471,B+
18,5.333333,1,0.222222,1.611111,B+
18,6.222222,1,0.5,2.222222,B+
18,5.388889,1,0.277778,1.611111,B+
18,5.388889,1,0.222222,1.666667,B+
18,6.166667,1,0.5,2.222222,B+
18,6,1,0.444444,2.166667,B+
13,5.769231,1,0.538462,2.461538,B+
18,5.944444,1,0.5,2.111111,B+
18,6.277778,1,0.5,2.111111,B+
18,5.611111,1,0.277778,1.833333,B+
17,6.058824,1,0.470588,2.117647,B+
18,6.277778,1,0.5,2.111111,B+
18,5.222222,0.944444,0.222222,1.555556,B+
18,6.222222,1,0.5,2.277778,B+
17,5.882353,1,0.470588,2.235294,B+
18,6.055556,1,0.5,2.166667,B+
12,6,1,0.583333,2.083333,B+
12,5.916667,1,0.583333,2,B+
12,5.833333,1,0.583333,2.083333,B+
12,5.833333,1,0.583333,2.083333,B+
17,5.176471,1,0.235294,1.823529,B+
18,6.166667,1,0.5,2.333333,B+
13,5.769231,1,0.461538,2.384615,B+
13,5.846154,1,0.538462,2.461538,B+
18,5.611111,1,0.277778,1.833333,B+
24,6.291667,0.958333,0.5,2.208333,C
24,6.25,0.958333,0.458333,2.083333,C
19,6.315789,0.947368,0.421053,2.105263,C
23,6.173913,0.956522,0.434783,2,C
15,6,1,0.6,2.066667,C
15,6.133333,1,0.533333,2,C
23,6.434783,0.956522,0.478261,1.956522,C
24,6.333333,0.958333,0.5,2.166667,C
24,6.166667,0.958333,0.458333,2.125,C
15,5.866667,1,0.466667,1.8,C
15,6.066667,1,0.533333,2.133333,C
23,6.478261,0.956522,0.565217,2.217391,C
15,5.933333,1,0.533333,2.2,C
24,6.291667,0.958333,0.5,2.166667,C
18,6.5,1,0.5,2.277778,C
15,6.2,1,0.533333,1.933333,C
23,6.347826,0.956522,0.521739,2,C
24,6.458333,0.958333,0.5,2.125,C
15,6,1,0.466667,1.866667,C
24,6.375,0.958333,0.5,2.125,C
15,5.866667,1,0.466667,2,C
19,5.947368,0.894737,0.368421,2.105263,C
18,6.222222,1,0.5,1.944444,C
23,6.478261,0.956522,0.478261,1.956522,C
18,6,1,0.388889,2.055556,C
18,6.444444,1,0.5,2.222222,C
19,6.473684,1,0.526316,2.210526,C
24,6.208333,0.958333,0.458333,2.125,C
15,6.133333,1,0.533333,2.066667,C
15,6.133333,1,0.533333,2.066667,C
15,5.933333,1,0.6,2,C
15,5.933333,1,0.533333,2.2,C
19,6.368421,1,0.473684,2.368421,C
24,6,0.958333,0.375,2.291667,C
24,6.166667,0.958333,0.458333,2.166667,C
15,6.2,1,0.533333,2.133333,C
19,6.315789,1,0.473684,2.368421,C
15,6.133333,1,0.6,2.2,C
18,6.388889,1,0.5,1.944444,C
23,6.565217,0.956522,0.565217,2,C
3,4,1,0,0,A
3,3.333333,1,0,0.333333,A
3,4,1,0,1,A
3,3.666667,1,0,1,A
3,3.666667,1,0,1.333333,A
3,3.666667,1,0,1.333333,A
3,3.666667,1,0,0.666667,A
4,5.5,1,0.25,1.5,A
3,3.666667,1,0,1.333333,A
3,4,1,0,0,A
3,3.666667,1,0,1.333333,A
3,3.666667,1,0,1.333333,A
4,5.5,1,0.25,1.5,A
3,4,1,0,1,A
2,4.5,1,0,1.5,A
3,3.666667,1,0,0.666667,A
3,3.666667,1,0,1.333333,A
3,3.666667,1,0,1.333333,A
2,4.5,1,0,1.5,A
3,4.333333,1,0,0.333333,A
4,5.5,1,0.25,1.5,A
3,4,1,0,1,A
3,3.666667,1,0,1.333333,A
2,5,1,0.5,1.5,A
3,3.666667,1,0,1.333333,A
3,4.333333,1,0,0.333333,A
3,3.666667,1,0,1.333333,A
3,3.666667,1,0,1.333333,A
5,5,1,0.2,2,A
3,3.666667,1,0,1.333333,A
3,3.666667,1,0,1,A
3,3.666667,1,0,0.666667,A
3,4.666667,1,0.333333,1,A
3,4,1,0,0,A
3,3.666667,1,0,1.333333,A
3,3.666667,1,0,1.333333,A
3,4,1,0,1,A
2,4.5,1,0,1.5,A
3,4.333333,1,0,0.333333,A
2,4.5,1,0,1.5,A
5,5.2,1,0.2,2.2,A+
5,4.6,1,0,1.4,A+
5,4.2,1,0,1.2,A+
6,3.833333,1,0,1.833333,A+
6,5.166667,1,0.166667,2.166667,A+
6,3.666667,1,0,2,A+
5,5.4,1,0.2,1.2,A+
6,4,1,0,1.833333,A+
6,4.166667,1,0,1.833333,A+
6,4.833333,1,0.166667,2,A+
5,4.8,1,0.2,1.6,A+
5,4.6,1,0,1.4,A+
5,5.2,1,0.2,1.2,A+
5,5.2,1,0.2,2.2,A+
5,5.2,1,0.2,1,A+
5,4.4,1,0,1.4,A+
6,5.166667,1,0.166667,2.166667,A+
5,4.6,1,0,1.4,A+
5,5.2,1,0.2,2.2,A+
5,5.2,1,0.2,1.2,A+
5,4.8,1,0.2,1.4,A+
6,3.666667,1,0,2,A+
6,4,1,0,1.833333,A+
5,4.8,1,0,1.6,A+
6,5.166667,1,0.166667,2.166667,A+
5,4.4,1,0,1.4,A+
5,4.2,1,0,1.2,A+
5,5.4,1,0.2,1.6,A+
5,4.2,1,0,1.2,A+
5,5.2,1,0.2,2.2,A+
6,3.5,1,0,2,A+
6,3.833333,1,0,2,A+
5,4.8,1,0.2,1.4,A+
6,3.666667,1,0,2,A+
5,4.4,1,0,1.4,A+
5,5.6,1,0.2,1.8,A+
6,3.666667,1,0,2,A+
6,4.833333,1,0.166667,2.166667,A+
5,5.6,1,0.2,1.8,A+
5,4.8,1,0.2,1.4,A+
10,4.4,1,0.1,1.5,B
10,4.6,1,0.2,1.4,B
9,4.222222,1,0.111111,1,B
9,4.222222,1,0.222222,1.666667,B
9,4.333333,1,0.222222,1.888889,B
10,3.8,1,0,1.2,B
9,4.111111,1,0.111111,1.555556,B
10,4,1,0,1.5,B
9,3.777778,1,0,1.666667,B
9,4.222222,1,0.111111,1.444444,B
9,4,1,0,1.666667,B
10,4.2,1,0.1,1.7,B
8,4,1,0,1.25,B
8,3.875,1,0,1.125,B
9,4,1,0.111111,1.666667,B
9,4.444444,1,0.111111,1.333333,B
9,3.666667,1,0,1.777778,B
9,4.333333,1,0.111111,1.222222,B
10,4,1,0,1.9,B
10,4.2,1,0.1,1.6,B
9,4.222222,1,0.111111,1.666667,B
8,4,1,0,1.25,B
10,3.8,1,0,1.2,B
10,4.1,1,0,1.5,B
9,3.888889,1,0,1,B
8,4,1,0,1.25,B
9,4.333333,1,0.222222,1.555556,B
10,4.8,1,0.1,1.6,B
8,3.75,1,0,0.875,B
10,4.2,1,0.1,1.6,B
9,3.888889,1,0.111111,1.777778,B
9,4.222222,1,0.111111,1.666667,B
9,4.333333,1,0.111111,1.444444,B
10,4.4,1,0.1,1.6,B
10,4.6,1,0.2,1.4,B
10,4.4,1,0.1,1.3,B
10,4.6,1,0.2,1.5,B
9,3.888889,1,0.111111,1.777778,B
10,4.4,1,0.1,1.4,B
9,4.333333,1,0.222222,1.444444,B
13,5.846154,1,0.538462,2.384615,B+
18,6.055556,1,0.444444,2,B+
18,6.111111,1,0.444444,2.166667,B+
17,5.823529,1,0.411765,2.117647,B+
18,6,1,0.5,2.222222,B+
17,5.117647,1,0.176471,1.941176,B+
18,6,1,0.444444,2,B+
18,5.5,1,0.277778,1.777778,B+
18,5.277778,1,0.222222,1.722222,B+
18,5.444444,1,0.222222,1.833333,B+
17,5.647059,1,0.411765,2.176471,B+
12,6.083333,1,0.583333,2.083333,B+
17,6,1,0.470588,2.294118,B+
13,5.846154,1,0.538462,2.461538,B+
18,5.388889,1,0.222222,1.944444,B+
12,5.75,1,0.583333,2.166667,B+
18,6.111111,1,0.5,2.111111,B+
13,6.230769,1,0.615385,2.230769,B+
12,5.833333,1,0.583333,2.083333,B+
18,6.055556,1,0.5,2.055556,B+
18,5.277778,1,0.222222,1.777778,B+
12,6.166667,1,0.583333,2.083333,B+
12,5.833333,1,0.583333,2.166667,B+
17,5.117647,1,0.176471,1.647059,B+
17,5.176471,1,0.176471,1.764706,B+
13,5.769231,1,0.461538,2.384615,B+
17,5.823529,1,0.411765,2.117647,B+
18,5.333333,1,0.222222,1.777778,B+
18,5.5,1,0.277778,1.722222,B+
18,6.111111,1,0.5,2.055556,B+
18,6,1,0.5,2.222222,B+
18,5.333333,1,0.222222,1.611111,B+
13,6.307692,1,0.615385,2.230769,B+
18,6.222222,1,0.5,2.277778,B+
17,5.882353,1,0.470588,2.294118,B+
18,5.222222,1,0.222222,1.666667,B+
17,5.058824,1,0.235294,1.823529,B+
18,5.666667,1,0.277778,1.944444,B+
13,6.076923,1,0.615385,2.153846,B+
18,5.666667,1,0.277778,1.888889,B+
15,6.066667,1,0.533333,2.133333,C
15,6,1,0.466667,2,C
15,6,1,0.533333,2,C
19,6.105263,0.947368,0.421053,2.052632,C
15,5.866667,1,0.533333,1.933333,C
24,6.208333,0.958333,0.458333,2.125,C
19,5.736842,0.894737,0.368421,2.105263,C
19,5.789474,1,0.368421,2,C
15,6,1,0.6,2,C
23,6.434783,0.956522,0.478261,1.956522,C
24,6.375,0.958333,0.5,2.125,C
15,6,1,0.466667,2.133333,C
15,5.933333,1,0.533333,2.066667,C
23,6.565217,0.956522,0.565217,2.043478,C
23,6.347826,0.956522,0.478261,2.173913,C
18,6.277778,1,0.5,2.222222,C
18,6.055556,0.944444,0.388889,2.166667,C
24,6.625,0.958333,0.541667,2.125,C
15,6.133333,1,0.533333,2.2,C
19,6.315789,1,0.473684,2.263158,C
15,5.866667,1,0.533333,2,C
23,6.304348,0.956522,0.521739,2.043478,C
18,6.111111,1,0.5,1.888889,C
23,6.478261,0.956522,0.565217,2.173913,C
23,6.434783,0.956522,0.478261,2,C
18,6.5,1,0.5,2.277778,C
18,6.333333,1,0.5,2.222222,C
15,6.133333,1,0.6,2.133333,C
19,6.315789,1,0.473684,2.421053,C
23,6.608696,0.956522,0.565217,2,C
15,6.066667,1,0.533333,2.066667,C
23,6.434783,0.956522,0.565217,2.26087,C
19,6.105263,1,0.473684,2,C
15,5.933333,1,0.533333,1.933333,C
15,6.066667,1,0.466667,2.133333,C
19,6.263158,1,0.473684,2.421053,C
19,5.894737,1,0.421053,2,C
18,6.055556,0.944444,0.388889,2.055556,C
19,6.315789,0.947368,0.421053,2.210526,C
15,6.066667,1,0.6,2.066667,C
3,4.666667,1,0.333333,1,A
3,3.666667,1,0,1.333333,A
3,4,1,0,0,A
5,5,1,0.2,2,A
3,4.333333,1,0,0.333333,A
5,5,1,0.2,2,A
3,4,1,0,0,A
3,3.666667,1,0,1.333333,A
4,5.25,1,0.25,1.25,A
3,4.333333,1,0,0.333333,A
2,4,1,0,2,A
3,4,1,0,0,A
3,3.333333,1,0,0.333333,A
5,5,1,0.2,2,A
2,4.5,1,0,1.5,A
3,3.666667,1,0,1.333333,A
3,4.333333,1,0,0.333333,A
3,3.333333,1,0,0.333333,A
3,4,1,0,0,A
3,3.666667,1,0,0.666667,A
2,6,1,0.5,3,A
3,3.666667,1,0,1,A
3,3.666667,1,0,1.333333,A
5,5,1,0.2,2,A
3,4.333333,1,0,0.333333,A
4,5.5,1,0.25,1.5,A
3,4,1,0,0,A
4,5.5,1,0.25,1.5,A
4,5.25,1,0.25,1.25,A
3,4.666667,1,0.333333,1,A
3,3.666667,1,0,0.666667,A
4,5.25,1,0.25,1.25,A
2,4,1,0,2,A
3,3.666667,1,0,1.333333,A
3,3.666667,1,0,1.333333,A
4,5.25,1,0.25,1.25,A
3,3.666667,1,0,1,A
2,4,1,0,2,A
3,3.666667,1,0,1.333333,A
3,3.333333,1,0,0.333333,A
5,5.4,1,0.2,1.2,A+
6,3.666667,1,0,1.833333,A+
6,5.166667,1,0.166667,2.166667,A+
5,4.4,1,0,1.4,A+
6,3.833333,1,0,2,A+
5,5.6,1,0.2,1.8,A+
5,5.2,1,0.2,1,A+
5,5.2,1,0.2,1.2,A+
6,4.833333,1,0.166667,2.166667,A+
6,4.166667,1,0,1.666667,A+
5,4.4,1,0,1.4,A+
6,5.166667,1,0.166667,2.166667,A+
6,5.166667,1,0.166667,2.166667,A+
6,3.833333,1,0,1.833333,A+
6,3.666667,1,0,1.833333,A+
6,5.166667,1,0.166667,2.166667,A+
5,4.4,1,0,1.4,A+
6,4.833333,1,0.166667,2,A+
6,3.833333,1,0,2,A+
6,5.166667,1,0.166667,2.166667,A+
6,5.166667,1,0.166667,2.166667,A+
5,4.8,1,0,1.6,A+
5,4.8,1,0.2,1.6,A+
5,4.8,1,0,1.6,A+
5,5.2,1,0.2,2.2,A+
5,4.8,1,0.2,1.4,A+
6,4.833333,1,0.166667,2,A+
5,4.8,1,0,1.6,A+
5,5.2,1,0.2,1.2,A+
5,5.4,1,0.2,1.6,A+
6,3.666667,1,0,1.833333,A+
6,3.666667,1,0,2,A+
5,5.2,1,0.2,1.2,A+
5,4.8,1,0,1.6,A+
5,4.6,1,0,1.4,A+
6,3.5,1,0,2,A+
5,4.6,1,0,1.4,A+
5,5.2,1,0.2,1.2,A+
5,5.4,1,0.2,1.6,A+
6,3.666667,1,0,1.833333,A+
10,3.8,1,0,1.2,B
10,4.7,1,0.2,1.3,B
10,4.6,1,0.2,1.4,B
10,4.4,1,0.1,1.6,B
10,4.6,1,0.1,1.6,B
10,4.4,1,0.1,1.5,B
10,3.8,1,0,1.2,B
9,4.333333,1,0.222222,1.555556,B
9,4,1,0,1.222222,B
9,4.222222,1,0.111111,1.888889,B
10,4.4,1,0.1,1.5,B
10,4.2,1,0.1,1.7,B
11,4.272727,1,0.090909,1.454545,B
10,4.4,1,0.1,1.6,B
9,3.888889,1,0,1,B
10,3.8,1,0,1.2,B
9,3.888889,1,0,1,B
10,4.6,1,0.2,1.5,B
9,4.111111,1,0,1.333333,B
10,4.4,1,0.1,1.3,B
10,4.9,1,0.2,1.6,B
9,4.222222,1,0.222222,1.777778,B
10,4.6,1,0.2,1.4,B
10,3.9,1,0,1.4,B
9,3.888889,1,0,1,B
10,4.5,1,0.2,1.5,B
9,4.111111,1,0.111111,1.444444,B
8,3.75,1,0,0.875,B
10,4.1,1,0,1.5,B
10,4.6,1,0.1,1.6,B
10,4.6,1,0.2,1.4,B
10,4.1,1,0,1.5,B
9,4.333333,1,0.222222,1.888889,B
10,4.4,1,0.1,1.6,B
9,4,1,0.111111,1.666667,B
8,3.75,1,0,0.875,B
10,3.9,1,0,1.8,B
10,4.1,1,0,1.5,B
10,4,1,0,1.5,B
9,3.888889,1,0,1.666667,B
13,5.923077,1,0.538462,2.384615,B+
18,6.055556,1,0.5,2.055556,B+
18,6.166667,1,0.5,2.055556,B+
17,5.235294,1,0.235294,1.764706,B+
18,5.333333,1,0.277778,1.666667,B+
17,5.117647,1,0.235294,1.941176,B+
17,6,1,0.470588,2.294118,B+
18,5.722222,1,0.277778,1.944444,B+
13,5.846154,1,0.538462,2.461538,B+
12,5.916667,1,0.583333,2.083333,B+
12,6.166667,1,0.583333,2.083333,B+
13,6,1,0.615385,2.230769,B+
17,6,1,0.470588,2.294118,B+
18,5.222222,0.944444,0.222222,1.555556,B+
18,6.166667,1,0.5,2.055556,B+
12,5.75,1,0.5,2,B+
18,5.555556,1,0.277778,1.888889,B+
18,5.388889,1,0.222222,1.722222,B+
18,5.5,1,0.222222,1.833333,B+
13,6.230769,1,0.615385,2.230769,B+
18,6.111111,1,0.5,2.055556,B+
13,6.230769,1,0.615385,2.230769,B+
17,6,1,0.470588,2.176471,B+
18,6.222222,1,0.5,2.166667,B+
13,6,1,0.615385,2.230769,B+
18,6.222222,1,0.5,2.277778,B+
12,5.916667,1,0.583333,2.166667,B+
18,5.555556,1,0.222222,1.888889,B+
12,5.75,1,0.5,2,B+
13,5.769231,1,0.461538,2.384615,B+
18,6.111111,1,0.5,2.222222,B+
12,6.25,1,0.583333,2.166667,B+
18,5.388889,1,0.277778,1.722222,B+
17,5.882353,1,0.470588,2.176471,B+
18,6.055556,1,0.5,2.111111,B+
17,5.647059,1,0.411765,2.176471,B+
12,5.75,1,0.583333,2.166667,B+
18,5.333333,1,0.222222,1.611111,B+
12,5.75,1,0.583333,2.083333,B+
18,5.5,1,0.222222,1.833333,B+
19,6.421053,1,0.526316,2.210526,C
23,6.434783,0.956522,0.478261,2,C
23,6.391304,0.956522,0.478261,2.043478,C
15,5.8,1,0.466667,2.066667,C
15,6.066667,1,0.533333,2,C
24,6.333333,0.958333,0.5,2.333333,C
15,6.133333,1,0.533333,2.066667,C
15,6.266667,1,0.6,2.066667,C
19,6,1,0.421053,2.052632,C
15,6.133333,1,0.533333,2.2,C
15,5.933333,1,0.6,2.066667,C
15,6,1,0.466667,1.933333,C
15,6.066667,1,0.533333,1.933333,C
24,6.583333,0.958333,0.541667,2.166667,C
15,5.733333,1,0.466667,1.933333,C
18,6.111111,1,0.5,1.833333,C
15,6.2,1,0.533333,1.933333,C
18,6.333333,1,0.5,2,C
24,6,0.958333,0.375,2.291667,C
19,6.157895,1,0.526316,1.894737,C
15,6.066667,1,0.533333,1.866667,C
15,6.133333,1,0.6,2.133333,C
23,6.304348,0.956522,0.521739,2,C
24,6.375,0.958333,0.5,2.125,C
18,6.222222,0.944444,0.388889,2.055556,C
15,6,1,0.466667,2.066667,C
15,5.866667,1,0.466667,1.8,C
15,6.466667,1,0.6,2.066667,C
15,6.333333,1,0.6,2.066667,C
15,5.8,1,0.466667,1.933333,C
23,6.173913,0.956522,0.434783,2,C
15,5.933333,1,0.533333,2,C
19,5.842105,1,0.421053,2,C
15,5.733333,1,0.466667,2.066667,C
15,6.066667,1,0.533333,2.066667,C
15,5.933333,1,0.466667,2.133333,C
24,6.166667,0.958333,0.458333,2.166667,C
15,5.933333,1,0.533333,1.8,C
15,6.133333,1,0.533333,2.133333,C
24,6.291667,0.958333,0.5,2.208333,C
14,5.214286,1,0.357143,1.714286,C
13,5.230769,1,0.153846,2.230769,C
12,5.916667,1,0.416667,2.25,C
15,4.933333,1,0.133333,1.733333,C
15,4.866667,1,0.2,1.933333,C
14,5.928571,1,0.428571,2.285714,C
15,5.2,1,0.133333,2.266667,C
13,5.538462,1,0.384615,1.692308,C
13,4.615385,1,0.153846,1.769231,C
13,5.307692,1,0.153846,1.692308,C
13,5.538462,1,0.307692,2.461538,C
15,5.333333,1,0.333333,2.066667,C
14,4.5,1,0,1.5,C
14,4.642857,1,0.142857,2,C
13,7.384615,1,0.538462,2.769231,C
13,5.615385,1,0.384615,2.538462,C
13,5.153846,1,0.384615,1.384615,C
12,5.083333,1,0.25,1.833333,C
13,5.461538,1,0.153846,2.076923,C
13,5.615385,1,0.307692,2.153846,C
15,5,1,0.2,1.6,C
15,5,1,0.266667,1.733333,C
12,5.166667,1,0.333333,2.666667,C
17,4.470588,0.941176,0.117647,1.470588,C
13,5.615385,1,0.230769,2.230769,C
15,5.733333,1,0.333333,1.733333,C
15,5.866667,1,0.466667,2.466667,C
13,6.153846,1,0.384615,2.076923,C
16,5.4375,1,0.25,1.8125,C
13,6.307692,1,0.307692,2.538462,C
14,5.785714,1,0.357143,2.785714,C
14,6,1,0.357143,2,C
13,6,1,0.307692,1.846154,C
14,6.285714,1,0.428571,2.642857,C
15,5.6,1,0.266667,1.866667,C
15,6.066667,1,0.333333,2.066667,C
16,5.3125,1,0.1875,2.5,C
16,5.625,1,0.1875,2.4375,C
15,6.133333,1,0.6,1.933333,C
15,5.933333,1,0.4,1.733333,C
12,6.583333,1,0.5,2.5,C
15,5.333333,1,0.2,1.533333,C
12,6.833333,1,0.666667,3,C
15,5.466667,1,0.266667,1.466667,C
15,5.666667,1,0.2,2.266667,C
14,6.142857,1,0.285714,2.357143,C
15,5.466667,1,0.266667,2.133333,C
15,5.733333,1,0.333333,2.2,C
15,5.6,1,0.466667,2.133333,C
16,5.625,1,0.25,2.6875,C
14,6.142857,1,0.357143,1.857143,C
15,5.466667,1,0.4,1.8,C
15,5.8,1,0.4,2,C
12,7.583333,1,0.583333,3,C
14,5.928571,1,0.285714,2.5,C
15,5.6,1,0.266667,1.8,C
15,4.666667,0.933333,0.266667,1.866667,C
16,5.5,0.9375,0.375,2.125,C
17,5.235294,1,0.176471,2.117647,C
14,5.857143,1,0.5,1.857143,C
13,6.076923,1,0.384615,2.846154,C
16,4.6875,1,0.25,1.75,C
15,5.533333,1,0.2,1.666667,C
14,5.857143,1,0.357143,1.357143,C
12,6.833333,1,0.666667,2.833333,C
13,5.230769,0.923077,0.307692,2.153846,C
14,5.642857,1,0.357143,1.642857,C
12,6.25,1,0.5,2.666667,C
12,6.166667,1,0.333333,1.75,C
11,6.545455,1,0.636364,2.727273,C
15,5,1,0.133333,2.2,C
12,6.25,1,0.416667,2.5,C
11,6.090909,1,0.363636,2,C
13,6.153846,1,0.461538,2.538462,C
15,5.533333,0.933333,0.266667,1.933333,C
13,6.384615,1,0.692308,2,C
13,6.461538,1,0.538462,2.538462,C
14,5.214286,1,0.214286,1.714286,C
11,6.454545,1,0.545455,2.363636,C
6,6.083333,1,0.416667,2.166667,C
16,4.75,1,0.1875,1.625,C
14,5.785714,1,0.428571,1.785714,C
13,5.923077,1,0.384615,1.923077,C
11,7.727273,1,0.636364,2.181818,C
13,5.846154,1,0.384615,1.769231,C
12,5.833333,1,0.333333,2.583333,C
12,6.583333,1,0.583333,2.416667,C
12,5.833333,1,0.416667,2.25,C
14,5.428571,1,0.357143,2.142857,C
12,6.5,1,0.5,2.25,C
14,5.357143,1,0.214286,2.214286,C
14,5.714286,1,0.428571,2.142857,C
11,6.545455,1,0.454545,2,C
14,5.071429,1,0.214286,1.5,C
13,5.615385,1,0.307692,1.769231,C
12,6,1,0.333333,2.583333,C
14,5.357143,1,0.214286,2.214286,C
11,7,1,0.636364,2.363636,C
13,5.923077,1,0.461538,2.076923,C
13,5.692308,1,0.230769,1.846154,C
12,5.666667,1,0.333333,1.916667,C
11,6.545455,1,0.454545,2.090909,C
12,5.75,1,0.333333,1.833333,C
16,5.1875,1,0.25,1.6875,C
14,6,0.928571,0.428571,1.785714,C
14,5.5,1,0.214286,2.214286,C
11,6.454545,1,0.454545,1.909091,C
13,5.692308,1,0.384615,1.846154,C
13,5.923077,1,0.230769,2.230769,C
14,5.928571,0.928571,0.357143,2.357143,C
14,5.642857,1,0.285714,2.428571,C
14,6.071429,1,0.357143,1.928571,C
13,5.769231,1,0.307692,2.153846,C
13,6.230769,1,0.384615,2,C
14,5.785714,1,0.285714,1.857143,C
14,5.285714,0.928571,0.142857,1.928571,C
14,5.642857,1,0.357143,2.285714,C
16,5.3125,1,0.3125,1.4375,C
11,6.727273,1,0.545455,2.545455,C
12,6.916667,1,0.666667,2.333333,C
12,5.916667,1,0.25,2.083333,C
12,6.166667,1,0.416667,2.333333,C
11,6.272727,1,0.545455,2.636364,C
12,6.166667,1,0.5,2.666667,C
14,5,1,0.142857,1.785714,C
14,5.642857,1,0.214286,2.214286,C
17,4.882353,0.941176,0.176471,1.588235,C
14,5.642857,1,0.285714,1.571429,C
12,6.916667,1,0.666667,1.833333,C
14,5.5,1,0.285714,2.214286,C
16,4.9375,1,0.1875,1.75,C
12,5.916667,1,0.25,1.333333,C
14,5.785714,1,0.214286,2.214286,C
14,5.714286,1,0.428571,1.928571,C
13,5.923077,1,0.307692,2.307692,C
14,5.357143,1,0.285714,1.571429,C
14,5.642857,1,0.285714,2.071429,C
14,5.642857,1,0.357143,2.071429,C
13,5.769231,1,0.307692,1.923077,C
14,5.714286,1,0.285714,2,C
15,5.666667,1,0.266667,1.866667,C
13,6,1,0.384615,1.846154,C
17,4.705882,1,0.058824,1.470588,C
12,6,1,0.416667,1.833333,C
13,5.846154,1,0.384615,1.769231,C
12,6.166667,1,0.25,2.166667,C
12,6.583333,1,0.5,2,C
14,5.357143,1,0.285714,2.285714,C
14,5.214286,1,0.214286,1.785714,C
13,5.461538,1,0.307692,2.153846,C
12,6.083333,1,0.416667,2.5,C
12,6.083333,1,0.333333,2.083333,C
13,6.153846,1,0.461538,2.923077,C
13,5.538462,1,0.230769,1.769231,C
9,5.222222,1,0.222222,1.888889,B
8,4.625,1,0.125,2.25,B
11,4.727273,1,0,1.454545,B
8,5.5,1,0.25,1.75,B
9,5.555556,1,0.333333,1.888889,B
10,5.1,1,0.2,1.6,B
10,4.8,1,0.2,1.9,B
9,5,1,0.222222,1.444444,B
9,5.333333,1,0.222222,2,B
11,4.909091,1,0.272727,1.090909,B
10,5.2,1,0.2,1.4,B
9,5.555556,0.888889,0.333333,1.888889,B
9,5.111111,1,0.111111,1,B
9,5.222222,1,0.222222,2,B
10,4.7,1,0,1.8,B
11,4.818182,1,0.363636,1.909091,B
8,4.875,1,0,2.25,B
11,5.545455,1,0.272727,1.909091,B
9,7,1,0.555556,1.444444,B
9,4.111111,1,0,1.666667,B
8,5.375,1,0.25,2.125,B
11,4.909091,1,0.272727,2.363636,B
12,5.583333,1,0.25,1.666667,B
10,4.6,1,0.1,2.1,B
9,6.111111,1,0.555556,2.111111,B
9,6.333333,1,0.444444,2,B
11,5.181818,1,0.272727,1.909091,B
10,4.6,1,0.1,2.2,B
10,5.1,1,0.3,2.2,B
8,6.125,1,0.5,1.75,B
10,5.1,0.9,0.4,1.9,B
10,5.5,1,0.3,2.1,B
10,6.3,0.9,0.6,2.7,B
8,5.875,1,0.5,2.5,B
10,5.2,1,0.2,2.2,B
9,5.444444,1,0.222222,2.222222,B
7,6.857143,1,0.571429,2,B
9,4.888889,1,0,2.111111,B
11,4.454545,1,0.181818,1.545455,B
10,5.1,1,0.2,1.9,B
10,4.6,1,0.1,2.3,B
9,5.888889,1,0.333333,1.777778,B
10,5.5,1,0.2,2.7,B
8,5.5,1,0.25,2.75,B
8,4.75,1,0.125,2.25,B
10,4.8,1,0.1,1.7,B
8,6.375,1,0.625,2.75,B
9,6.111111,1,0.444444,2.222222,B
8,5.25,1,0.25,2,B
9,5.444444,1,0.222222,1.777778,B
11,5.090909,1,0.181818,2.272727,B
10,6.9,1,0.7,2.1,B
9,5.444444,1,0,2.222222,B
11,4.818182,1,0.090909,1.727273,B
9,6.222222,1,0.555556,2.666667,B
10,5.9,1,0.3,2.6,B
8,6.25,1,0.5,2.625,B
10,5.1,1,0.3,2.6,B
9,5.333333,1,0.333333,2.222222,B
9,5.555556,1,0.111111,2.222222,B
10,4.9,1,0.1,2.2,B
10,6.1,1,0.4,3,B
8,5.75,1,0.375,2.125,B
9,4.777778,1,0.222222,2.333333,B
8,6.625,1,0.625,2.5,B
8,5.375,1,0.25,2.25,B
8,5.5,1,0.375,2,B
8,5.375,1,0.5,1.625,B
10,5.8,1,0.4,2.4,B
9,6.444444,1,0.666667,2.666667,B
9,4.777778,1,0,1.666667,B
9,4.555556,1,0.111111,1.666667,B
11,4.454545,1,0,1.727273,B
9,5.555556,1,0.111111,2,B
9,5,1,0.222222,1.888889,B
8,5.125,1,0.25,2.125,B
8,5.875,1,0.375,1.75,B
9,6.444444,1,0.555556,2.444444,B
10,5,1,0.2,1.8,B
10,4.9,1,0.2,1.8,B
10,4.6,1,0,1.6,B
9,5.333333,1,0.222222,1.888889,B
10,5,1,0.1,2.2,B
8,5.5,1,0.375,1.75,B
8,5.875,1,0.375,2.25,B
9,4.333333,1,0,1.777778,B
12,4.666667,1,0,1.916667,B
8,6.375,1,0.625,1.75,B
7,6,1,0.428571,1.428571,B
10,6,1,0.4,2.3,B
8,5.375,1,0.25,1.25,B
9,4.888889,1,0,1.555556,B
8,4.625,1,0.125,1.75,B
8,5.75,1,0.375,2.75,B
8,6.375,1,0.25,2.625,B
8,5.625,1,0.375,2,B
10,4.6,1,0,1.5,B
10,5.4,1,0.2,1.5,B
9,6.111111,1,0.333333,1.888889,B
8,5.875,1,0.125,3,B
10,5.8,1,0.4,1.9,B
7,5.428571,1,0.285714,2.142857,B
8,5.125,0.875,0.125,2,B
10,4.9,0.9,0,1.6,B
9,5.111111,0.888889,0.111111,2.111111,B
8,5.125,1,0.125,2,B
7,5.142857,1,0.142857,1.428571,B
7,5.285714,1,0.428571,1.857143,B
11,4.727273,1,0,1.818182,B
9,5.222222,1,0.222222,2.111111,B
9,6.444444,1,0.555556,2.111111,B
8,6.25,1,0.5,3,B
9,5.333333,1,0.333333,2,B
8,6.625,1,0.375,2.375,B
7,6,1,0.428571,2.857143,B
8,6.125,1,0.25,2.625,B
9,6,1,0.444444,2.222222,B
10,5.5,1,0.3,1.9,B
8,6.25,1,0.25,1.625,B
10,5.5,1,0.4,1.5,B
9,7,1,0.555556,2.222222,B
7,7.142857,1,0.571429,2.571429,B
9,5.222222,1,0.222222,2,B
8,6.75,1,0.375,1.875,B
8,6.25,1,0.5,2.125,B
9,5,1,0.222222,2.666667,B
10,6.1,1,0.5,2.1,B
10,5.5,1,0.1,2.1,B
9,5.888889,1,0.444444,2.222222,B
8,6.5,1,0.5,3,B
8,4.875,1,0.25,2,B
9,5.222222,1,0.333333,1.666667,B
7,5.857143,1,0.428571,1.857143,B
9,5.222222,1,0.222222,1.888889,B
8,4.375,1,0,2.375,B
8,5.25,1,0.125,2.25,B
8,4.75,1,0.25,1.875,B
8,5.25,1,0.25,1.5,B
8,6.625,1,0.375,1.625,B
8,5.625,1,0.25,1.625,B
7,6,1,0.428571,2,B
9,5,1,0.111111,1.666667,B
8,5.25,1,0.25,1.75,B
8,5.125,1,0.125,1.75,B
8,5.375,1,0.25,1.375,B
8,5.875,1,0.25,2.25,B
9,4.666667,1,0.222222,2.111111,B
8,5.5,1,0.25,2,B
8,5.25,1,0.25,2.375,B
7,5.714286,1,0.285714,2.571429,B
6,5.833333,0.833333,0.5,3.166667,B
6,6.5,1,0.5,2.166667,B
7,6.571429,1,0.428571,1.857143,B
7,5.142857,1,0.142857,2.428571,B
6,5.333333,1,0,2,B
8,4.625,1,0.125,2.625,B
8,5.5,1,0.25,1.625,B
7,5.714286,1,0.428571,2.428571,B
8,6.25,1,0.5,2.875,B
7,6.142857,1,0.142857,2.142857,B
8,5.625,1,0.375,2.125,B
7,5.285714,1,0.285714,2,B
7,6.571429,1,0.428571,2.428571,B
8,5.375,1,0.25,1.75,B
9,6,1,0.333333,2.222222,B
10,5.2,1,0.2,1.6,B
8,5,1,0.125,2.25,B
6,5.833333,1,0.5,2.333333,B
8,5.875,1,0.375,2.25,B
8,5.375,1,0.25,2,B
8,5.75,1,0.375,2.375,B
7,6.285714,1,0.714286,2.285714,B
8,6.375,1,0.5,2.125,B
8,5.375,1,0.25,1.75,B
7,6.285714,1,0.571429,1.428571,B
7,5.857143,1,0.428571,2.428571,B
9,5.333333,1,0.333333,1.666667,B
7,6.285714,1,0.428571,2.571429,B
7,5.285714,1,0.142857,2.571429,B
10,4.8,1,0,1.6,B
7,5.142857,1,0.285714,2.285714,B
8,4.625,1,0.125,1.375,B
7,7.428571,1,0.714286,2.714286,B
9,5.333333,1,0.222222,1.555556,B
8,5.75,1,0.125,2.25,B
8,5.375,0.75,0.375,1.625,B
7,5.285714,1,0.285714,2.571429,B
8,5,1,0,1.875,B
9,5.666667,0.888889,0.222222,1.666667,B
8,5,1,0,2.125,B
7,6.571429,1,0.428571,2.285714,B
7,5.571429,1,0.285714,1.857143,B
9,5,1,0.222222,2,B
10,6.3,1,0.3,1.9,B
7,5.714286,1,0.285714,2.142857,B
7,5.285714,1,0.285714,2,B
8,6.125,1,0.25,2.5,B
8,6.625,1,0.5,2.125,B
7,5.285714,1,0,2.428571,B
3,3.666667,1,0,1.333333,A
4,5.5,1,0.25,1.5,A
3,3.666667,1,0,1.333333,A
4,5.25,1,0.25,1.25,A
3,3.666667,1,0,1.333333,A
3,3.666667,1,0,1.333333,A
3,3.666667,1,0,1.333333,A
3,3.666667,1,0,1,A
3,3.666667,1,0,1.333333,A
3,3.666667,1,0,1,A
3,3.666667,1,0,1.333333,A
2,6,1,0.5,3,A
3,3.666667,1,0,1.333333,A
3,4.333333,1,0,0.333333,A
3,3.666667,1,0,0.666667,A
3,3.666667,1,0,1.333333,A
3,4.666667,1,0.333333,1,A
3,3.666667,1,0,1.333333,A
3,3.666667,1,0,1.333333,A
2,6,1,0.5,3,A
3,3.666667,1,0,0.666667,A
3,3.333333,1,0,0.333333,A
5,5,1,0.2,2,A
2,4,1,0,2,A
3,3.666667,1,0,1.333333,A
3,4,1,0,1,A
3,4.333333,1,0,0.333333,A
3,4.333333,1,0,0.333333,A
3,4.333333,1,0,0.333333,A
3,3.666667,1,0,1.333333,A
4,5.5,1,0.25,1.5,A
3,3.666667,1,0,1.333333,A
4,5.5,1,0.25,1.5,A
3,3.666667,1,0,1.333333,A
3,3.666667,1,0,1.333333,A
3,3.666667,1,0,0.666667,A
3,3.333333,1,0,0.333333,A
3,3.666667,1,0,1.333333,A
4,5.5,1,0.25,1.5,A
4,5.5,1,0.25,1.5,A
5,5.2,1,0.2,1.2,A+
6,4.666667,1,0.166667,2.166667,A+
5,5.2,1,0.2,1,A+
5,4.8,1,0.2,1.6,A+
5,4.4,1,0,1.4,A+
5,5.2,1,0.2,1.2,A+
6,3.833333,1,0,2,A+
5,4.6,1,0,1.4,A+
5,4.4,1,0,1.4,A+
6,3.833333,1,0,2,A+
5,4.6,1,0,1.4,A+
5,4.8,1,0,1.6,A+
5,4.2,1,0,1.2,A+
5,4.4,1,0,1.4,A+
6,5.166667,1,0.166667,2.166667,A+
5,5.4,1,0.2,1.6,A+
6,3.666667,1,0,1.833333,A+
5,4.6,1,0,1.4,A+
6,5.166667,1,0.166667,2.166667,A+
5,5.2,1,0.2,2.2,A+
5,4.8,1,0.2,1.6,A+
5,5.2,1,0.2,1.2,A+
5,4.4,1,0,1.4,A+
6,4.666667,1,0.166667,2.166667,A+
5,4.6,1,0,1.4,A+
6,4.833333,1,0.166667,2,A+
6,5.166667,1,0.166667,2.166667,A+
6,3.666667,1,0,1.833333,A+
5,5.4,1,0.2,1.2,A+
5,4.2,1,0,1.2,A+
5,5.4,1,0.2,1.2,A+
6,3.833333,1,0,1.833333,A+
5,5.2,1,0.2,1.2,A+
6,5.166667,1,0.166667,2.166667,A+
5,4.8,1,0.2,1.4,A+
5,4.8,1,0.2,1.4,A+
6,3.833333,1,0,1.833333,A+
6,3.666667,1,0,1.833333,A+
5,5.6,1,0.2,1.8,A+
5,5.2,1,0.2,1.2,A+
10,4.4,1,0.1,1.6,B
9,4.222222,1,0.111111,1.555556,B
10,4.9,1,0.2,1.5,B
9,4.333333,1,0.222222,1.666667,B
10,4.9,1,0.2,1.5,B
11,4.272727,1,0.090909,1.454545,B
10,3.9,1,0,1.4,B
9,4.333333,1,0.111111,1.444444,B
10,4.4,1,0.1,1.6,B
9,4.333333,1,0.222222,1.444444,B
10,4.3,1,0.1,1.9,B
10,4.4,1,0.1,1.6,B
9,4.333333,1,0.222222,1.888889,B
9,4.333333,1,0.111111,1.222222,B
10,4.3,1,0,1.7,B
9,4,1,0.111111,1.666667,B
10,4.7,1,0.2,1.3,B
10,4.4,1,0.1,1.5,B
10,4.6,1,0.2,1.4,B
8,3.875,1,0,1.125,B
9,3.888889,1,0,1,B
10,4.2,1,0,1.9,B
9,3.888889,1,0,1.777778,B
10,4.6,1,0.2,1.4,B
10,4.6,1,0.2,1.5,B
10,4.6,1,0.1,1.6,B
9,4.111111,1,0,1.666667,B
9,4,1,0.111111,1.777778,B
10,4.6,1,0.2,1.4,B
9,4,1,0,1.666667,B
9,4.333333,1,0.111111,1.222222,B
8,3.75,1,0,0.875,B
10,4,1,0,1.5,B
9,4.333333,1,0.222222,1.333333,B
10,4.4,1,0.1,1.3,B
9,3.888889,1,0,1.666667,B
10,3.8,1,0,1.2,B
10,4,1,0,1.5,B
10,4.3,1,0,1.7,B
10,4.4,1,0.1,1.3,B
13,6,1,0.615385,2.230769,B+
13,5.769231,1,0.461538,2.384615,B+
18,6.111111,1,0.5,2.166667,B+
13,6.153846,1,0.538462,2.461538,B+
18,5.333333,1,0.222222,1.777778,B+
18,6.166667,1,0.5,2.166667,B+
18,6,1,0.444444,2.166667,B+
18,5.388889,1,0.222222,1.555556,B+
18,5.388889,1,0.277778,1.888889,B+
12,5.75,1,0.5,2.166667,B+
18,5.5,1,0.222222,1.722222,B+
17,5.117647,1,0.176471,1.823529,B+
17,5.058824,1,0.176471,1.882353,B+
17,6,1,0.470588,2.176471,B+
13,6.307692,1,0.615385,2.230769,B+
12,5.75,1,0.5,2.083333,B+
18,5.444444,1,0.222222,1.666667,B+
18,6.166667,1,0.5,2,B+
13,6.153846,1,0.538462,2.461538,B+
18,6.277778,1,0.5,2.111111,B+
18,5.444444,1,0.277778,1.777778,B+
18,5.388889,1,0.222222,1.666667,B+
17,5.882353,1,0.470588,2.235294,B+
18,5.388889,1,0.222222,1.666667,B+
13,6.076923,1,0.615385,2.153846,B+
18,5.777778,1,0.277778,2,B+
18,6.388889,1,0.5,2.111111,B+
18,5.944444,1,0.5,2.111111,B+
18,5.5,1,0.222222,1.722222,B+
18,6.166667,1,0.5,2.055556,B+
12,5.916667,1,0.583333,2,B+
18,6.111111,1,0.5,2,B+
13,5.923077,1,0.538462,2.153846,B+
18,6.055556,1,0.5,2.222222,B+
17,5.823529,1,0.470588,2.176471,B+
18,5.944444,1,0.444444,2.055556,B+
18,6.333333,1,0.5,2.277778,B+
12,6.166667,1,0.583333,2.166667,B+
13,6.076923,1,0.538462,2.538462,B+
13,5.923077,1,0.538462,2.153846,B+
15,6.066667,1,0.533333,2.133333,C
15,6.266667,1,0.533333,2.066667,C
24,6.333333,0.958333,0.5,2.125,C
18,6.5,1,0.5,2.277778,C
23,6.347826,0.956522,0.521739,2,C
24,6.416667,0.958333,0.458333,2.291667,C
15,6.066667,1,0.533333,2.066667,C
15,6,1,0.533333,2.266667,C
24,6.041667,0.958333,0.375,2.25,C
19,6.421053,1,0.526316,2.368421,C
15,6.133333,1,0.533333,1.933333,C
15,6.2,1,0.533333,2,C
18,6.111111,1,0.5,1.833333,C
23,6.130435,0.956522,0.434783,2.130435,C
15,5.933333,1,0.533333,2.066667,C
18,6.055556,0.944444,0.388889,2.055556,C
18,5.944444,1,0.388889,2,C
18,6.222222,1,0.5,2,C
15,5.733333,1,0.466667,1.933333,C
19,6.052632,1,0.473684,1.947368,C
18,6.333333,1,0.5,1.888889,C
15,6.133333,1,0.6,2.2,C
15,6.066667,1,0.533333,1.933333,C
15,5.933333,1,0.533333,2,C
15,6.2,1,0.6,2.133333,C
18,5.944444,1,0.388889,2.111111,C
15,6,1,0.533333,2.133333,C
24,6.541667,0.958333,0.541667,2.208333,C
15,6,1,0.533333,2.2,C
24,6.291667,0.958333,0.5,2.208333,C
19,6.421053,1,0.526316,1.947368,C
15,5.866667,1,0.466667,2.066667,C
15,5.866667,1,0.466667,2.2,C
19,5.947368,0.894737,0.368421,2.157895,C
23,6.608696,0.956522,0.565217,2,C
15,6,1,0.533333,2.2,C
19,6.368421,1,0.526316,2,C
19,6.631579,1,0.526316,2.263158,C
24,6.375,0.958333,0.5,2.125,C
24,6.333333,0.958333,0.5,2.333333,C
5,5,1,0.2,1.2,A
3,4,1,0,1,A
4,5.5,1,0.25,1.5,A
3,4,1,0,1.666667,A
3,3.666667,1,0,0.666667,A
3,3.666667,1,0,1.333333,A
2,6,1,0.5,2,A
4,3.75,1,0,0.75,A
4,4,1,0,0.5,A
2,5.5,1,0.5,2,A
2,4,1,0,1,A
3,3.666667,1,0,1,A
4,3.75,1,0,0.25,A
5,5,1,0.2,1.2,A
3,3.666667,1,0,1.333333,A
4,5.25,1,0.25,1.5,A
3,4.333333,1,0,0.333333,A
3,4,1,0,1,A
2,5.5,1,0.5,2.5,A
2,5.5,1,0.5,2,A
2,4.5,1,0,2.5,A
3,3.666667,1,0,0.333333,A
2,5.5,1,0.5,1.5,A
3,3.666667,1,0,0.666667,A
4,5,1,0,1.75,A
3,4.333333,1,0,0.333333,A
4,3.75,1,0,0.75,A
4,3.75,1,0,0.75,A
3,3.666667,1,0,1,A
3,4,1,0,1,A
2,4,1,0,2,A
2,6,1,0.5,2,A
4,4,1,0,0.5,A
4,4,1,0,1,A
3,4,1,0,1,A
4,5.25,1,0.25,1.25,A
3,3.666667,1,0,0.666667,A
3,4.333333,1,0,0.666667,A
3,4,1,0,1.666667,A
2,4,1,0,2,A
5,4.6,1,0,1.6,A+
6,5.166667,1,0.166667,2.166667,A+
3,5.666667,1,0.333333,2.333333,A+
6,3.833333,1,0,2,A+
7,5.428571,1,0.285714,1.714286,A+
7,3.714286,1,0,1.571429,A+
5,5.4,1,0.2,1.8,A+
5,5.4,1,0.2,1.8,A+
6,5.5,1,0.333333,2.5,A+
6,4,1,0,1.833333,A+
3,6.666667,1,0.333333,2.666667,A+
6,5.166667,1,0.166667,1.833333,A+
7,4.285714,1,0,1.142857,A+
5,5.2,1,0.2,1.8,A+
5,4.8,1,0,1,A+
5,5.4,1,0.2,1.8,A+
5,4.8,1,0,1.4,A+
6,3.833333,1,0,2.166667,A+
5,4.6,1,0,1.4,A+
6,3.833333,1,0,1.833333,A+
6,5.166667,1,0.166667,1.5,A+
8,3.625,1,0,1.375,A+
5,4.6,1,0.2,2.2,A+
5,5.4,1,0.2,1.8,A+
5,4.6,1,0,1.4,A+
6,4.166667,1,0.166667,1.166667,A+
5,4.6,1,0,1.4,A+
7,4.285714,1,0,1.571429,A+
6,5.166667,1,0.166667,2.166667,A+
3,6.333333,1,0.333333,2.333333,A+
6,3.833333,1,0,1.833333,A+
6,4.666667,1,0.166667,1.5,A+
5,5.4,1,0.2,1.4,A+
5,4.4,1,0,1.4,A+
6,5.166667,1,0.166667,1.833333,A+
3,6,1,0.333333,3.333333,A+
3,6.333333,1,0.333333,2,A+
7,4,1,0,1.571429,A+
5,5.2,1,0.2,1.2,A+
3,6.333333,1,0.333333,2.333333,A+
5,6.2,1,0.6,2,B
11,4.454545,1,0.181818,1.636364,B
10,4.4,1,0.1,1.8,B
9,4.333333,1,0.222222,1.777778,B
6,5.833333,1,0.5,2.333333,B
10,4.6,1,0.2,1.5,B
11,3.909091,1,0,1.909091,B
5,5.4,1,0.4,2,B
6,5.333333,1,0.166667,2,B
9,4.333333,1,0.222222,1.777778,B
8,4.25,1,0,1.25,B
9,4,1,0.111111,2.111111,B
10,4.9,1,0.2,1.7,B
5,6.2,1,0.6,2.4,B
6,5.833333,1,0.5,2.5,B
9,3.888889,1,0,1,B
5,6.4,1,0.8,2.2,B
5,5.6,1,0.4,2.2,B
6,6.833333,1,0.666667,3,B
10,4.6,1,0.2,1.8,B
10,4.4,1,0.1,1.4,B
10,4.7,1,0.1,1.8,B
7,5.285714,1,0.285714,2,B
5,6,1,0.6,2.2,B
9,4.222222,1,0.111111,1.333333,B
7,5.428571,1,0.285714,2.142857,B
6,6,1,0.5,3.333333,B
11,4.454545,1,0.181818,1.818182,B
5,5.6,1,0.4,2.2,B
10,4.6,1,0.2,1.6,B
10,4.4,1,0.1,1.4,B
5,6.2,1,0.6,2,B
9,4.333333,1,0.111111,1.222222,B
9,4.111111,1,0.111111,1.444444,B
9,4.444444,1,0.111111,1.111111,B
10,4.9,1,0.2,1.6,B
9,4.444444,1,0.222222,1.777778,B
5,6,1,0.6,1.8,B
5,6.4,1,0.6,2.6,B
6,6.166667,1,0.333333,3,B
12,5.916667,1,0.333333,2.166667,B+
13,5.692308,1,0.307692,2.153846,B+
18,5.555556,1,0.333333,1.888889,B+
13,6.153846,1,0.538462,2.076923,B+
13,6.076923,1,0.615385,2.307692,B+
13,5.846154,1,0.538462,1.846154,B+
18,5.666667,1,0.333333,2,B+
12,6.583333,1,0.416667,2.166667,B+
10,5.6,1,0.3,2.1,B+
20,5.7,1,0.3,2,B+
12,5.583333,1,0.25,2.25,B+
12,5.916667,1,0.333333,2.166667,B+
19,6.210526,1,0.473684,2.105263,B+
18,6,1,0.5,2.166667,B+
18,5.666667,1,0.333333,1.833333,B+
12,5.25,0.916667,0.25,1.583333,B+
18,5.888889,1,0.388889,2,B+
12,5.75,1,0.5,2.166667,B+
11,5.727273,0.909091,0.363636,1.909091,B+
13,6.230769,1,0.538462,2.153846,B+
12,5.083333,0.916667,0.166667,1.583333,B+
12,5.833333,1,0.583333,2.25,B+
12,5.666667,1,0.166667,2.25,B+
19,5.315789,1,0.210526,1.842105,B+
18,5.5,1,0.277778,2.055556,B+
13,5.923077,1,0.538462,2.076923,B+
10,6,1,0.5,1.9,B+
19,6.157895,1,0.473684,2.157895,B+
18,5.666667,1,0.333333,2.111111,B+
13,5.692308,1,0.307692,2,B+
19,5.105263,1,0.210526,1.947368,B+
13,5.846154,1,0.538462,2.153846,B+
13,6,1,0.615385,2.076923,B+
19,5.684211,1,0.315789,2,B+
13,6.076923,1,0.538462,2.076923,B+
19,5.421053,1,0.315789,1.789474,B+
20,5.55,1,0.3,1.95,B+
13,5.769231,1,0.307692,1.615385,B+
19,5.684211,1,0.368421,2.105263,B+
18,5.722222,1,0.388889,2.055556,B+
18,6.055556,1,0.388889,1.833333,C
17,6,1,0.352941,2.058824,C
12,6.583333,1,0.5,2.25,C
18,6,1,0.5,1.944444,C
12,5.166667,1,0.083333,2,C
17,6.235294,1,0.588235,1.941176,C
13,5.615385,1,0.153846,1.923077,C
16,6.4375,1,0.625,2.125,C
19,6.473684,1,0.526316,2.105263,C
18,6.444444,1,0.444444,2.444444,C
20,6.05,1,0.45,2.15,C
12,6.25,1,0.416667,2.333333,C
18,5.777778,1,0.388889,1.944444,C
16,6.125,1,0.5,2.125,C
25,6.2,0.96,0.44,2,C
12,6.25,0.916667,0.416667,2,C
18,6.111111,1,0.555556,2.222222,C
12,6.333333,1,0.5,2.333333,C
16,6.25,1,0.5625,2,C
13,5.538462,1,0.230769,1.846154,C
12,6.583333,1,0.5,2.25,C
12,6.75,1,0.583333,2.833333,C
24,6.25,0.958333,0.458333,2.125,C
25,6.24,0.96,0.48,1.88,C
12,6.75,1,0.583333,2.166667,C
18,6.222222,0.944444,0.388889,2.055556,C
18,6.111111,1,0.555556,2.111111,C
18,5.722222,1,0.444444,1.888889,C
12,6.916667,1,0.666667,2.333333,C
18,6.055556,1,0.444444,1.944444,C
17,6.294118,1,0.588235,2.117647,C
12,6.5,1,0.5,2.833333,C
19,6.315789,1,0.526316,2.052632,C
11,5.636364,1,0.181818,1.909091,C
18,6.111111,1,0.444444,1.944444,C
12,6.5,1,0.5,2.333333,C
12,6.833333,0.916667,0.666667,2.333333,C
19,6.157895,1,0.473684,2.157895,C
12,7,1,0.666667,2.583333,C
11,6.181818,1,0.272727,2.181818,C
6,5.833333,1,0.5,2.5,B
5.194444,4.684492,0.601604,0.139037,1.671123,A
4.685185,4.252964,0.509881,0.106719,1.513834,A
7.4,5.302703,0.632432,0.281081,1.837838,A
8.666667,4.615385,0.746154,0.161538,1.407692,A
5.458333,4.374046,0.625954,0.083969,1.641221,A
6.045455,5.473684,0.646617,0.293233,1.887218,A
4.826087,4.468468,0.558559,0.099099,1.702703,A
4.266667,4.769531,0.488281,0.179688,1.574219,A
4.711111,4.674528,0.660377,0.132075,1.75,A
5.25,4.571429,0.654762,0.10119,1.720238,A
4.55814,4.882653,0.678571,0.137755,1.704082,A
4.521127,4.838006,0.535826,0.133956,1.71028,A
7.2,4.722222,0.568182,0.169192,1.709596,A
6.310345,4.825137,0.672131,0.191257,1.57377,A
3.130435,4.62963,0.574074,0.194444,1.898148,A
3.092593,4.538922,0.48503,0.035928,1.550898,A
5.7,4.596491,0.657895,0.122807,1.584795,A
9.214286,5.170543,0.728682,0.317829,1.860465,A
8.285714,4.689655,0.663793,0.172414,1.801724,A
3.75,4.152381,0.590476,0.12381,1.72381,A
15,5.325926,0.777778,0.214815,1.762963,A
9.4,6,0.751773,0.361702,2.035461,A
6.2,4.725806,0.612903,0.153226,1.653226,A
12.333333,5.547297,0.804054,0.263514,1.75,A
5.785714,4.641975,0.648148,0.080247,1.783951,A
4.763636,4.622137,0.637405,0.183206,1.549618,A
4.777778,4.813953,0.72093,0.139535,1.77907,A
6.076923,4.531646,0.860759,0.088608,1.658228,A
5.032258,4.307692,0.525641,0.108974,1.814103,A
6.304348,5.051724,0.651724,0.217241,1.710345,A
7.347826,4.798817,0.674556,0.153846,1.863905,A
3.363636,4.398649,0.581081,0.108108,1.641892,A
8.769231,5.131579,0.447368,0.131579,1.991228,A
12.2,5.352459,0.598361,0.204918,1.795082,A
8.176471,4.395683,0.81295,0.115108,1.539568,A
5.724638,4.643038,0.617722,0.126582,1.468354,A
8.6,5.178295,0.472868,0.147287,1.906977,A
8.538462,4.905405,0.738739,0.162162,1.486486,A
6.366667,4.73822,0.596859,0.146597,1.649215,A
8.176471,5.017986,0.651079,0.205036,1.600719,A
7.255319,4.56305,0.653959,0.102639,1.71261,A
9.68,4.991736,0.520661,0.214876,1.863636,A
5.8,4.988506,0.804598,0.091954,1.954023,A
7.780488,4.567398,0.670846,0.131661,1.388715,B+
30.933333,4.984914,0.760776,0.189655,1.721983,B+
29.555556,5.169173,0.714286,0.218045,1.755639,B+
7.34375,4.859574,0.825532,0.212766,1.655319,B+
18.7,5.363636,0.84492,0.326203,2.058824,B+
46,4.981884,0.73913,0.206522,1.655797,B+
37,5.617117,0.761261,0.310811,2.036036,B+
23.636364,4.819231,0.776923,0.146154,1.765385,B+
16.428571,5.034783,0.717391,0.234783,1.756522,B+
24.714286,5.150289,0.809249,0.283237,1.803468,B+
18.533333,4.629496,0.672662,0.176259,1.532374,B+
18.823529,5.1125,0.7625,0.196875,1.734375,B+
16.705882,4.908451,0.78169,0.214789,1.602113,B+
24.3,5.135802,0.744856,0.242798,1.868313,B+
20.8,5.100962,0.774038,0.245192,1.807692,B+
26.5,5.415094,0.788679,0.283019,1.886792,B+
6.894737,4.793893,0.763359,0.152672,1.396947,B+
12.045455,5.090566,0.724528,0.230189,1.732075,B+
13.5,5.265432,0.771605,0.271605,1.839506,B+
10.695652,5.03252,0.621951,0.25813,1.770325,B+
29.428571,5.184466,0.713592,0.271845,1.747573,B+
16,5.171875,0.8125,0.25,1.796875,B+
43.5,5.275862,0.764368,0.258621,1.850575,B+
14.655172,4.545882,0.630588,0.108235,1.508235,B+
21.9,5.278539,0.799087,0.273973,2.031963,B+
28.666667,5.01938,0.825581,0.182171,1.763566,B+
33.333333,5.185,0.78,0.22,1.565,B+
24.428571,5.251462,0.754386,0.25731,1.608187,B+
26.4,5.462121,0.712121,0.333333,1.856061,B+
140,5.485714,0.778571,0.321429,1.721429,B+
70.75,5.293286,0.710247,0.268551,1.69258,B+
33,5.083333,0.742424,0.227273,1.700758,B+
20.2,4.943894,0.775578,0.171617,1.90429,B+
18.277778,5.100304,0.75076,0.194529,1.762918,B+
14.62963,5.043038,0.797468,0.225316,1.668354,B+
15.5,5.219355,0.748387,0.258065,1.664516,B+
15.411765,5.171756,0.706107,0.225191,1.759542,B+
15.727273,4.317919,0.791908,0.104046,1.508671,B+
9.870968,4.820261,0.722222,0.202614,1.607843,B+
1,4,1,0,3,B+
47.5,5.926316,0.852632,0.368421,2.189474,B+
15,5.197436,0.748718,0.248718,1.741026,B+
14.588235,5.245968,0.745968,0.28629,1.612903,B+
27.166667,5.331288,0.822086,0.220859,1.791411,B+
19.722222,4.639437,0.585915,0.132394,1.408451,B+
13.685714,5.052192,0.695198,0.227557,1.5762,B+
26.833333,5.223602,0.869565,0.273292,1.689441,B+
47.5,5.436842,0.731579,0.310526,1.968421,B+
26.375,5.132701,0.848341,0.232227,1.905213,B+
19.454545,5.397196,0.845794,0.247664,1.635514,B+
25.8,5.20155,0.732558,0.263566,1.860465,B+
22.75,5.362637,0.813187,0.274725,1.785714,B+
21.307692,5.32491,0.722022,0.288809,1.552347,B+
7.212121,4.731092,0.676471,0.157563,1.728992,B+
15.875,4.7979,0.753281,0.128609,1.874016,B+
13.15625,4.940618,0.665083,0.185273,1.617577,B+
16.2,5.1893,0.740741,0.242798,1.502058,B+
20.25,5.296296,0.851852,0.271605,1.919753,B+
20.285714,5.105634,0.852113,0.239437,1.823944,B+
8.5,4.563025,0.590336,0.130252,1.745798,B+
26.714286,5.144385,0.71123,0.251337,1.721925,B+
18.666667,5.5,0.723214,0.316964,1.696429,B+
12.190476,5.019531,0.769531,0.164063,2.027344,B
17.230769,5.232143,0.785714,0.258929,1.879464,B
21.875,5.382857,0.794286,0.302857,1.817143,B
14.333333,4.72093,0.697674,0.178295,1.496124,B
15.875,5.425197,0.791339,0.291339,1.897638,B
23.888889,5.4,0.837209,0.283721,2.060465,B
10.916667,4.80916,0.870229,0.129771,1.648855,B
19.769231,5.14786,0.723735,0.229572,1.871595,B
18.2,4.71978,0.824176,0.175824,1.631868,B
12.727273,4.992857,0.789286,0.225,1.5,B
15.6,5.080128,0.820513,0.205128,1.663462,B
12.235294,5.028846,0.798077,0.201923,1.841346,B
19.833333,5.096639,0.794118,0.214286,1.705882,B
17.9,5.396648,0.860335,0.318436,1.860335,B
15.636364,5.52907,0.819767,0.319767,1.790698,B
16.142857,4.973451,0.920354,0.159292,1.79646,B
21,4.738095,0.821429,0.190476,1.452381,B
14.333333,4.75969,0.852713,0.155039,1.573643,B
14.25,4.877193,0.885965,0.201754,1.701754,B
23.75,5.147368,0.789474,0.221053,1.757895,B
14,4.971429,0.9,0.192857,1.714286,B
29.6,5.175676,0.790541,0.310811,1.837838,B
22.75,5.56044,0.725275,0.252747,1.758242,B
30.5,5.110656,0.831967,0.233607,1.885246,B
9.818182,4.638889,0.87037,0.166667,1.407407,B
40,5.2125,0.9,0.2125,1.875,B
17.5,4.987755,0.722449,0.191837,1.857143,B
20.2,5.138614,0.920792,0.188119,1.920792,B
11.9,5.546218,0.865546,0.302521,2.07563,B
9.5,5.263158,0.813765,0.275304,1.595142,B
18.857143,5.318182,0.901515,0.257576,1.818182,B
18.666667,4.964286,0.790179,0.245536,1.776786,B
18.5,5.232432,0.821622,0.27027,1.735135,B
24.333333,5.191781,0.794521,0.212329,1.835616,B
14.545455,5.0625,0.79375,0.225,1.70625,B
18.333333,5.527273,0.845455,0.236364,1.854545,B
29.125,5.090129,0.806867,0.23176,1.725322,B
21,5.27619,0.828571,0.266667,1.742857,B
16.714286,5.102564,0.880342,0.213675,1.897436,B
17,6.058824,0.897059,0.382353,1.897059,B
26.428571,5.172973,0.767568,0.243243,1.810811,B
20.6,5.247573,0.854369,0.262136,1.694175,B
17.555556,5.006329,0.879747,0.234177,1.734177,B
16.666667,5.206667,0.846667,0.226667,1.966667,B
20.5,5.414634,0.747967,0.235772,1.845528,B
17.095238,5.125348,0.75766,0.228412,1.548747,B
11.153846,4.951724,0.848276,0.2,1.765517,B
27.2,5.514706,0.875,0.286765,2.051471,B
33.5,5.253731,0.820896,0.268657,1.781095,B
16.0625,5.264591,0.731518,0.256809,1.929961,B
44.25,5.231638,0.79096,0.276836,1.745763,B
17.2,5.697674,0.825581,0.325581,1.906977,B
17.066667,5.09375,0.785156,0.203125,1.640625,B
37,5.094595,0.783784,0.216216,1.756757,B
15.538462,4.772277,0.777228,0.173267,1.871287,B
18.166667,4.96789,0.720183,0.220183,1.665138,B
19.583333,4.982979,0.740426,0.187234,1.706383,B
11.666667,4.857143,0.833333,0.195238,1.661905,B
27.75,4.963964,0.743243,0.202703,1.612613,B
17.066667,5.199219,0.714844,0.285156,1.652344,B
20.3,5.009852,0.802956,0.246305,1.724138,B
14.571429,5.156863,0.843137,0.22549,1.784314,B
22.75,4.89011,0.818681,0.164835,1.82967,B
28.2,4.921986,0.822695,0.219858,1.51773,B
19.25,5.006494,0.909091,0.207792,1.863636,B
4.842105,4.902174,0.525362,0.155797,1.663043,A+
33.6,5.315476,0.833333,0.27381,1.928571,A+
10.833333,5.194872,0.789744,0.25641,1.876923,A+
11.222222,5.10396,0.836634,0.207921,1.544554,A+
29.5,5.194915,0.872881,0.220339,1.847458,A+
13,5.131868,0.851648,0.225275,1.741758,A+
46,5.195652,0.84058,0.26087,1.521739,A+
29.8,4.979866,0.744966,0.214765,1.738255,A+
14.5,5.013793,0.855172,0.248276,1.77931,A+
29.8,5.161074,0.785235,0.228188,1.805369,A+
22.375,5.067039,0.787709,0.173184,1.687151,A+
20,5.133333,0.679167,0.233333,1.85,A+
15.75,5.079365,0.904762,0.214286,1.896825,A+
6.257143,4.675799,0.598174,0.123288,1.748858,A+
21,4.897959,0.761905,0.129252,1.653061,A+
40.5,4.987654,0.851852,0.123457,1.802469,A+
19,4.927632,0.710526,0.217105,1.559211,A+
25.333333,5.223684,0.842105,0.276316,1.828947,A+
85.5,5.134503,0.871345,0.263158,1.888889,C
3.483607,4.821176,0.6,0.171765,1.423529,C
18.333333,4.916364,0.712727,0.214545,1.621818,C
13.888889,5.192,0.82,0.26,1.776,C
16.111111,5.058621,0.768966,0.217241,1.851724,C
40.428571,4.832155,0.625442,0.183746,1.689046,C
15.157895,4.833333,0.673611,0.201389,1.597222,C
18.133333,5.183824,0.786765,0.253676,1.738971,C
18,4.934641,0.767974,0.163399,1.699346,C
25,4.76381,0.674286,0.169524,1.615238,C
11.793103,5.140351,0.695906,0.19883,1.763158,C
54.555556,4.96945,0.665988,0.215886,1.625255,C
11.277778,4.753695,0.812808,0.147783,1.694581,C
59.571429,4.894484,0.745803,0.179856,1.508393,C
26.375,4.905213,0.781991,0.236967,1.63981,C
12.791667,4.820847,0.785016,0.153094,1.690554,C
16.666667,4.82,0.68,0.193333,1.604444,C
13.73913,4.822785,0.775316,0.136076,1.708861,C
84.5,5.08284,0.840237,0.218935,1.869822,C
16.157895,4.52443,0.687296,0.159609,1.407166,C
15.518519,5.257757,0.665871,0.300716,1.599045,C
38.75,5.180645,0.722581,0.216129,1.625806,C
11.7,4.905983,0.735043,0.162393,1.780627,C
38.714286,4.896679,0.752768,0.173432,1.911439,C
23.545455,4.953668,0.764479,0.212355,1.714286,C
19.916667,4.874477,0.74477,0.171548,1.669456,C
14.090909,5.074194,0.758065,0.206452,1.829032,C
16.538462,5.009302,0.809302,0.246512,1.572093,C
45.5,5.080586,0.798535,0.234432,1.842491,C
30.454545,5.095522,0.728358,0.229851,1.808955,C
32.666667,4.612245,0.663265,0.158163,1.55102,C
12.942857,4.699779,0.695364,0.183223,1.688742,C
19.333333,4.631466,0.581897,0.127155,1.588362,C
41.375,4.712991,0.743202,0.169184,1.628399,C
17.538462,5.29386,0.789474,0.263158,1.79386,C
17.823529,4.673267,0.742574,0.151815,1.346535,C
17.631579,5.101493,0.722388,0.262687,1.883582,C
16.111111,5.013793,0.685057,0.227586,1.673563,C
23.222222,4.961722,0.856459,0.191388,1.660287,C
20.875,5.007984,0.724551,0.205589,1.598802,B
16.375,5.424936,0.826972,0.307888,1.737913,B
20.333333,5.125683,0.759563,0.218579,1.836066,B
25.363636,5.222222,0.799283,0.247312,2.035842,B
21.75,4.773946,0.731801,0.164751,1.394636,B
18.461538,5.2125,0.8125,0.245833,1.8125,B
16.1,4.767081,0.757764,0.177019,1.763975,B
23.230769,4.837748,0.68543,0.195364,1.880795,B
21.117647,5.56546,0.788301,0.29805,1.89415,B
27,5.432099,0.820988,0.314815,2.067901,B
30.428571,5.056338,0.788732,0.183099,1.511737,B
28.75,5.656522,0.713043,0.352174,1.882609,B
32,5.323864,0.778409,0.235795,1.832386,B
27.625,4.841629,0.710407,0.20362,1.742081,B
20.3125,4.775385,0.732308,0.178462,1.667692,B
21.818182,5.416667,0.908333,0.3,1.745833,B
25.75,4.92233,0.711974,0.177994,1.702265,B
44.555556,5.184539,0.875312,0.189526,1.900249,B
26.818182,4.810169,0.80339,0.183051,1.772881,B
31.727273,5.189112,0.819484,0.229226,1.782235,B
24.125,5.276339,0.670121,0.274611,1.827288,B
28.142857,5.137056,0.761421,0.228426,1.822335,B
52.285714,4.857923,0.79235,0.188525,1.825137,B
24,4.952778,0.827778,0.183333,1.472222,B
13.970588,4.941053,0.747368,0.193684,1.604211,B
27.9,5.121864,0.863799,0.179211,1.770609,B
16.727273,4.991848,0.815217,0.233696,1.641304,B
20.181818,4.914414,0.828829,0.207207,1.873874,B
27.1875,4.889655,0.82069,0.181609,1.758621,B
31,4.843318,0.801843,0.165899,1.576037,B
28,5.365385,0.851648,0.28022,1.788462,B
19.857143,5.035971,0.708633,0.190647,1.946043,B
28.1,5.715302,0.761566,0.330961,1.935943,B
26.3,5.163498,0.695817,0.254753,1.61597,B
20.875,4.97006,0.772455,0.191617,1.679641,B
22.4,5.151786,0.848214,0.205357,1.75,B
18.705882,5.084906,0.704403,0.198113,1.584906,B
37.583333,4.711752,0.713969,0.159645,1.616408,B
20.764706,4.660057,0.787535,0.144476,1.713881,B
23.307692,5.285479,0.719472,0.265677,1.815182,B
26.357143,4.859079,0.707317,0.200542,1.593496,B
22.947368,5.011468,0.626147,0.194954,1.616972,B
21.307692,4.844765,0.743682,0.187726,1.555957,B
26.727273,5.132653,0.731293,0.207483,1.867347,B
19.730769,5.107212,0.705653,0.247563,1.746589,B
24.714286,5.16185,0.820809,0.196532,1.687861,B
21.357143,5.361204,0.725753,0.29097,1.692308,B
29.1875,5.430407,0.67666,0.250535,1.867238,B
15.833333,5.042105,0.702632,0.194737,1.597368,B
18.2,5.03663,0.765568,0.238095,1.675824,B
21.8125,4.982808,0.687679,0.183381,1.544413,B
26.5,5.264151,0.752022,0.234501,1.738544,B
17.352941,4.79322,0.786441,0.179661,1.589831,B
18.090909,5.092965,0.751256,0.231156,1.680905,B
56.5,5.221239,0.659292,0.283186,1.730088,B
31.578947,5.2,0.791667,0.271667,1.875,B
23.125,5.162162,0.810811,0.221622,1.772973,B
21.764706,5.251351,0.77027,0.251351,1.689189,B
49,5.352041,0.714286,0.239796,1.839286,B
27.333333,5.268293,0.752033,0.276423,1.98374,B
24.7,5.291498,0.773279,0.230769,1.910931,B
28,4.869048,0.75,0.22619,1.650794,B
35.625,5.098246,0.74386,0.238596,1.824561,B
23.357143,4.703364,0.700306,0.168196,1.599388,B
34.4,5.633721,0.819767,0.313953,1.761628,B
24.714286,5.026012,0.809249,0.219653,1.789017,B
16.136364,5.025352,0.791549,0.228169,1.664789,B
41.833333,5.294821,0.768924,0.247012,1.904382,B
18.272727,4.955224,0.748756,0.18408,1.604478,B
36.5,5.40411,0.695205,0.308219,2.082192,B
34.076923,5.20316,0.679458,0.255079,1.950339,B
25.454545,5.042857,0.810714,0.203571,1.646429,B
26,4.923077,0.838462,0.165385,1.592308,B
24.818182,5.223443,0.820513,0.238095,1.736264,B
25.941176,4.888889,0.732426,0.204082,1.78458,B
19,4.72807,0.807018,0.157895,1.780702,B
19.5,4.676923,0.876923,0.123077,1.671795,B
22.071429,5.304207,0.81877,0.28479,1.773463,B
24.928571,4.979943,0.767908,0.206304,1.856734,B
29.875,5.041841,0.8159,0.158996,1.76569,B
15.086957,5.216138,0.772334,0.244957,1.847262,B
38.428571,5.342007,0.832714,0.27881,1.799257,B
24.571429,5.424419,0.72093,0.296512,1.805233,B
49.142857,4.93314,0.694767,0.22093,1.790698,B
12.409091,5.208791,0.717949,0.245421,1.783883,B
20.75,5.295181,0.695783,0.271084,1.689759,B
24.25,5.051546,0.762887,0.28866,1.628866,B
23,5.067633,0.652174,0.2343,1.681159,B
35.666667,4.96729,0.817757,0.205607,2.079439,B
37.2,5.403226,0.766129,0.306452,1.77957,B
22.5,5.038095,0.774603,0.206349,1.847619,B
8.909091,4.872449,0.867347,0.147959,1.780612,B
20.071429,5.302491,0.733096,0.274021,1.690391,B
15.529412,5.170455,0.795455,0.246212,1.666667,B
36.8,5.320652,0.73913,0.288043,1.951087,B
9.733333,5.061644,0.863014,0.246575,1.821918,A
17.571429,5.03252,0.756098,0.252033,1.821138,A
2.692308,5.057143,0.842857,0.114286,1.885714,A
14.666667,5.136364,0.836364,0.218182,1.868182,A
13,5,0.789744,0.158974,1.871795,A
6,5.232143,0.779762,0.255952,2.154762,A
8.038462,5.473684,0.880383,0.272727,2.162679,A
8.538462,5.216216,0.635135,0.171171,1.662162,A
27.625,5.307692,0.769231,0.289593,1.728507,A
6.258065,4.757732,0.675258,0.134021,1.701031,A
4.833333,5.068966,0.798851,0.206897,1.821839,A
7.45,5.530201,0.798658,0.302013,2.087248,A
9.85,5.035533,0.639594,0.243655,1.908629,A
8.238095,5.190751,0.82659,0.213873,1.780347,A
8.444444,4.782895,0.842105,0.164474,1.578947,A
8.047619,4.674556,0.83432,0.142012,1.739645,A
11.5,5.318841,0.898551,0.231884,1.956522,A
11.875,5.336842,0.821053,0.2,1.905263,A
21.333333,5.197917,0.677083,0.171875,1.802083,A
4.038462,5.790476,0.809524,0.390476,1.885714,A
6.538462,4.511765,0.741176,0.123529,1.335294,A
14.1,5.276596,0.836879,0.304965,1.666667,A
18.875,5.741722,0.89404,0.364238,2.198675,A
9.55,5.303665,0.78534,0.251309,2.052356,A
10.857143,5.822368,0.710526,0.348684,1.743421,A
13.411765,5.535088,0.79386,0.307018,1.872807,A
7.878788,4.888462,0.646154,0.169231,1.823077,A
11.285714,4.725738,0.793249,0.109705,1.78903,A
16.75,4.992537,0.858209,0.171642,1.768657,A
5.541667,5.037594,0.672932,0.236842,1.770677,A
4.916667,4.983051,0.779661,0.186441,1.771186,A
6.517241,5.285714,0.78836,0.253968,1.936508,A
7.75,5,0.752688,0.215054,1.849462,A
7.541667,4.801105,0.751381,0.138122,1.883978,A
25.4,4.645669,0.811024,0.094488,1.826772,A+
22.833333,5.50365,0.854015,0.306569,1.978102,A+
16.714286,5.264957,0.811966,0.264957,1.512821,A+
16.466667,5.097166,0.842105,0.194332,1.700405,A+
22.285714,5.153846,0.858974,0.217949,1.833333,A+
22.6,5.185841,0.876106,0.283186,1.752212,A+
25.8,5.193798,0.821705,0.27907,1.581395,A+
33.666667,4.915842,0.831683,0.178218,1.678218,A+
22.142857,5.167742,0.832258,0.264516,1.83871,A+
24.5,5.823129,0.795918,0.292517,2.326531,A+
11.875,4.705263,0.868421,0.142105,1.863158,A+
15.666667,5.262411,0.929078,0.219858,1.765957,A+
9.833333,5.293785,0.80226,0.242938,1.80226,A+
15.857143,4.914414,0.779279,0.148649,1.666667,A+
29.5,5.144068,0.779661,0.20339,1.737288,A+
21.6,5.421296,0.523148,0.268519,1.842593,A+
18.375,4.768707,0.829932,0.156463,1.843537,A+
7.875,5.142857,0.888889,0.15873,1.825397,A+
17.714286,4.927419,0.879032,0.112903,1.758065,A+
10.454545,4.852174,0.686957,0.156522,1.834783,A+
16.692308,5.276498,0.705069,0.239631,1.695853,A+
13.333333,4.433333,0.691667,0.058333,1.675,A+
15.666667,5.262411,0.929078,0.219858,1.765957,A+
20.285714,5.021127,0.859155,0.15493,1.633803,A+
13.909091,5.529412,0.830065,0.294118,1.941176,A+
34.25,5.313869,0.80292,0.233577,1.715328,A+
19.615385,5.215686,0.768627,0.231373,1.866667,A+
18.285714,5.050781,0.808594,0.207031,1.769531,A+
26.5,4.735849,0.849057,0.150943,1.603774,A+
24.166667,5.135632,0.708046,0.216092,1.712644,B+
35.5,5.030516,0.739437,0.234742,1.734742,B+
23.428571,5.210366,0.765244,0.283537,1.79878,B+
30.333333,5.090659,0.760989,0.247253,1.673077,B+
25.5,5.69281,0.823529,0.303922,1.869281,B+
20.692308,4.933086,0.732342,0.189591,1.762082,B+
58.125,5.44086,0.750538,0.283871,1.817204,B+
12.857143,4.980556,0.702778,0.194444,1.525,B+
25.235294,5.174825,0.752914,0.244755,1.708625,B+
20.5,5.261324,0.864111,0.212544,1.891986,B+
21.333333,4.841518,0.761161,0.167411,1.794643,B+
25.772727,4.906526,0.723104,0.17284,1.798942,B+
39.545455,5.158621,0.731034,0.248276,1.737931,B+
30.75,5.384146,0.752033,0.239837,1.871951,B+
39.888889,4.952646,0.805014,0.208914,1.760446,B+
16.6875,5.479401,0.801498,0.314607,2.018727,B+
20.363636,5.5625,0.736607,0.348214,2.169643,B+
24.157895,5.206972,0.64488,0.246187,1.862745,B+
21.75,5.341954,0.729885,0.252874,1.864943,B+
18.375,4.965986,0.707483,0.180272,1.503401,B+
22.578947,4.680653,0.773893,0.135198,1.67366,B+
23,5.391304,0.891304,0.282609,1.586957,B+
54.714286,5.64752,0.791123,0.310705,1.97389,B+
28.363636,5.076923,0.766026,0.214744,1.705128,B+
49.4,5.131579,0.763158,0.236842,1.87247,B+
37.153846,5.383023,0.803313,0.281573,1.747412,B+
18.944444,4.656891,0.812317,0.173021,1.536657,B+
23.807692,5.213247,0.642973,0.263328,1.568659,B+
15.9375,5.611765,0.866667,0.32549,1.909804,B+
30.909091,5.658824,0.747059,0.338235,2.032353,B+
15.551724,4.694013,0.709534,0.186253,1.640798,B+
68,4.959559,0.661765,0.200368,1.667279,B+
19.8,4.919192,0.653199,0.225589,1.79798,B+
24.8,5.034274,0.727823,0.241935,1.77621,B+
29.666667,4.981273,0.771536,0.258427,1.857678,B+
22.4,5.071429,0.800595,0.232143,1.78869,B+
24,5.298611,0.809028,0.256944,1.694444,B+
21,5.452381,0.723214,0.291667,1.907738,B+
15.434783,4.487324,0.785915,0.121127,1.647887,B+
19.645161,5.106732,0.732348,0.211823,1.847291,B+
26.25,5.006349,0.850794,0.184127,1.688889,B+
43.285714,5.564356,0.782178,0.306931,1.917492,B+
25.545455,5.156584,0.797153,0.220641,1.708185,B+
59.6,5.45302,0.661074,0.265101,2.040268,B+
26.166667,5.245223,0.742038,0.296178,1.700637,B+
23.416667,4.66548,0.807829,0.149466,1.733096,B+
24.625,4.989848,0.827411,0.182741,1.558376,B+
17.789474,4.934911,0.828402,0.183432,1.630178,B+
18.541667,4.977528,0.716854,0.208989,1.777528,B+
64.714286,5.441501,0.721854,0.293598,1.900662,B+
24.545455,5.455556,0.788889,0.277778,1.862963,B+
21.454545,4.936441,0.847458,0.177966,1.690678,B+
18.9375,4.858086,0.811881,0.194719,1.620462,B+
18.85,5.143236,0.835544,0.233422,1.734748,B+
25.95,5.104046,0.709056,0.265896,1.7842,B+
36.777778,5.135952,0.697885,0.190332,1.903323,B+
49.833333,4.996656,0.745819,0.197324,1.712375,B+
33.076923,4.9,0.75814,0.17907,1.651163,B+
28.666667,4.936047,0.825581,0.171512,1.622093,B+
26.8125,5.137529,0.780886,0.254079,1.787879,B+
66,4.95671,0.757576,0.214286,1.753247,B+
29.454545,5.262346,0.83642,0.256173,1.709877,B+
21.363636,5.340426,0.851064,0.255319,1.885106,B+
33.090909,5.491758,0.697802,0.321429,2.002747,B+
30.1,5.076412,0.797342,0.245847,1.710963,B+
25.666667,4.831169,0.735065,0.168831,1.498701,B+
20.15,5.200993,0.7866,0.265509,1.64268,B+
32.875,4.828897,0.673004,0.197719,1.798479,B+
29.125,5.493562,0.753219,0.300429,1.88412,C
19.652174,5.327434,0.701327,0.294248,1.938053,C
25.666667,5.548701,0.788961,0.327922,1.905844,C
28.857143,5.247525,0.715347,0.29703,1.89604,C
17,4.944272,0.811146,0.195046,1.767802,C
39.875,4.992163,0.753918,0.230408,1.747649,C
40.2,5.241294,0.79602,0.243781,1.970149,C
21,5.380952,0.755952,0.285714,1.776786,C
13.866667,4.800481,0.740385,0.1875,1.697115,C
17.818182,5.012755,0.727041,0.242347,1.653061,C
28.96875,5.010787,0.67206,0.220065,1.653722,C
19.25,5.158205,0.655254,0.249115,1.691854,C
31.5,4.836735,0.755102,0.163265,1.678005,C
27.583333,4.60423,0.845921,0.154079,1.555891,C
28.125,5.014815,0.711111,0.214815,1.804444,C
30.25,5.363636,0.77686,0.278237,1.644628,C
33.1,5.425982,0.830816,0.308157,1.94864,C
16.897436,4.899848,0.754173,0.171472,1.813354,C
26.730769,4.699281,0.647482,0.168345,1.730935,C
32.875,4.834601,0.678707,0.174905,1.760456,C
13.487805,5.124774,0.74141,0.254973,1.728752,C
26.466667,4.680101,0.755668,0.141058,1.536524,C
29.454545,5.484568,0.75,0.290123,1.799383,C
19.928571,5.048387,0.657706,0.241935,1.62724,C
10.566038,5.2125,0.753571,0.230357,1.692857,C
17.391304,5.09875,0.685,0.235,1.67125,C
18.125,4.912644,0.765517,0.2,1.570115,C
17.782609,4.958435,0.828851,0.185819,1.743276,C
31.625,4.905138,0.677866,0.20751,1.62253,C
31.909091,5.310541,0.814815,0.296296,1.740741,C
36.636364,5.044665,0.80397,0.223325,1.776675,C
20.4,5.041176,0.596078,0.227451,1.727451,C
47,5.098404,0.734043,0.215426,1.611702,C
13.647059,4.581897,0.767241,0.142241,1.653017,C
35.833333,5.188372,0.783721,0.237209,1.888372,C
27.833333,4.984032,0.750499,0.221557,1.838323,C
34.583333,4.718072,0.80241,0.149398,1.838554,C
19.4,5.154639,0.776141,0.222386,1.712813,C
35.384615,4.843478,0.754348,0.186957,1.632609,C
46.444444,5.208134,0.782297,0.244019,1.834928,C
27.294118,4.69181,0.678879,0.215517,1.612069,C
28.076923,5.082192,0.734247,0.230137,1.630137,C
25.2,5.07672,0.777778,0.230159,1.703704,C
30.076923,4.987212,0.800512,0.217391,1.846547,C
21.2,5.226415,0.704403,0.261006,1.798742,C
17.8,5.382022,0.88764,0.258427,2.011236,A
4.608696,4.801887,0.801887,0.141509,1.641509,A
15,4.733333,1,0.133333,1.466667,A
3.473684,4.5,0.69697,0.045455,1.772727,A
5.166667,4.103226,0.554839,0.025806,1.593548,A
9.823529,4.958084,0.766467,0.215569,1.898204,A
11,4.636364,1,0.045455,1.5,A
20.5,5.682927,0.902439,0.365854,1.780488,A
6.222222,4.625,0.839286,0.107143,1.75,A
7.6,4.868421,0.868421,0.131579,1.710526,A
8.333333,4.68,0.88,0.12,2.12,A
12.142857,5.435294,0.823529,0.294118,1.905882,A
25.047619,5.015209,0.638783,0.220532,1.69962,B+
32,5.350694,0.817708,0.237847,1.809028,B+
28.052632,4.789869,0.821764,0.153846,1.590994,B+
31.952381,5.390462,0.748137,0.275708,1.795827,B+
25.47619,5.304673,0.654206,0.271028,1.807477,B+
12.787879,5.168246,0.696682,0.203791,1.654028,B+
19.965517,4.984456,0.784111,0.215889,1.70639,B+
33,5.217469,0.69697,0.238859,1.575758,B+
26.052632,4.983838,0.791919,0.185859,1.733333,B+
23.344828,4.951256,0.680945,0.208272,1.778434,B+
46.692308,5.242175,0.769357,0.243822,1.747941,B+
19.769231,5.044747,0.803502,0.182879,1.68677,B+
24.269231,4.947702,0.711569,0.169572,1.727417,B+
23.1875,5.118598,0.822102,0.274933,1.892183,B+
28.041667,5.560178,0.690936,0.309064,1.895988,B+
32.117647,5.326007,0.697802,0.302198,1.882784,B+
22.666667,5.106618,0.790441,0.231618,1.786765,B+
37.727273,5.209639,0.809639,0.214458,1.715663,B+
41.866667,5.170382,0.679936,0.254777,1.859873,B+
27.08,5.161004,0.713442,0.227474,1.630724,B+
34.333333,5.106796,0.883495,0.242718,1.669903,B+
22.173913,5.141176,0.7,0.258824,1.633333,B+
20,5.20625,0.739583,0.28125,1.89375,B+
16.923077,5.029545,0.818182,0.218182,1.759091,B+
30.117647,5.132813,0.710938,0.226563,1.789063,B+
28.789474,5.473492,0.740402,0.279707,1.97075,B+
28.733333,5.194896,0.756381,0.234339,1.807425,B+
33.636364,5.002703,0.778378,0.224324,1.645946,C
20.540541,5.269737,0.740789,0.276316,1.822368,C
23.035714,5.00155,0.717829,0.229457,1.722481,C
36.833333,4.99095,0.746606,0.196833,1.701357,C
27.708333,5.390977,0.720301,0.269173,1.920301,C
30.352941,5.203488,0.782946,0.26938,1.846899,C
26.470588,5.666667,0.704444,0.377778,1.891111,C
29.071429,5.267813,0.7543,0.27027,1.624079,C
25.714286,4.916667,0.85,0.238889,1.7,B
19,5.415205,0.754386,0.28655,1.807018,B
22.166667,5.699248,0.879699,0.368421,2.112782,B
21.571429,4.774834,0.913907,0.152318,1.589404,B
23.833333,4.839161,0.804196,0.146853,1.727273,B
35.666667,4.490654,0.817757,0.116822,1.630841,B
33.2,5.10241,0.825301,0.301205,1.843373,B
21.875,5.302857,0.88,0.222857,1.925714,B
28,5.125,0.857143,0.205357,1.669643,B
44.5,5.157303,0.775281,0.224719,1.735955,B
22.285714,5.160256,0.75,0.211538,1.980769,B
25.4,5.519685,0.818898,0.291339,1.771654,B
25.5,5.294118,0.823529,0.30719,2.006536,B
22,5.151515,0.901515,0.257576,2.007576,B
9.111111,5.085366,0.95122,0.158537,1.658537,B
12,5.541667,0.821429,0.357143,1.940476,B
29.4,5.619048,0.789116,0.319728,1.802721,B
28,5.577381,0.815476,0.345238,1.970238,B
31,5.241935,0.927419,0.177419,2.016129,B
28,4.928571,0.827381,0.136905,1.714286,B
18.666667,4.613095,0.815476,0.10119,1.767857,B
30.4,6.019737,0.802632,0.460526,1.861842,B
20,5.02,0.87,0.16,1.77,B
29,4.741379,0.729885,0.149425,1.666667,B
30.5,5.163934,0.868852,0.213115,1.606557,B
20,5.45,0.9125,0.3375,1.95,B
17.2,5.383721,0.918605,0.267442,1.953488,B
17.5,5.12381,0.914286,0.238095,1.714286,B
14.625,5.059829,0.854701,0.273504,1.888889,B
28.333333,5.505882,0.794118,0.258824,2.158824,B
19.5,5.162393,0.871795,0.222222,1.649573,B
19.75,4.632911,0.949367,0.101266,1.658228,B
30,5.366667,0.822222,0.322222,1.611111,B
19.833333,5.512605,0.882353,0.252101,1.722689,B
21.142857,5.121622,0.878378,0.202703,1.905405,B
22.5,5.466667,0.844444,0.311111,1.733333,B
28.666667,5.627907,0.883721,0.348837,2.081395,B
20.333333,5.352459,0.795082,0.295082,1.795082,B
26.166667,5.617834,0.783439,0.356688,2.038217,B
26.142857,5.256831,0.814208,0.245902,1.748634,B
103,5.271845,0.941748,0.223301,1.796117,B
18.625,5.402685,0.912752,0.275168,1.919463,B
23.888889,5.134884,0.75814,0.232558,1.539535,B
18.833333,4.902655,0.911504,0.150442,1.681416,B
33.25,5.030075,0.902256,0.210526,1.887218,B
26,5.115385,0.838462,0.207692,1.815385,B
18.833333,4.734513,0.858407,0.176991,1.663717,B
23.75,4.894737,0.863158,0.242105,1.694737,B
19.5,5,0.871795,0.205128,1.987179,B
24.333333,6,0.863014,0.438356,2.068493,B
23.75,6.178947,0.842105,0.4,1.968421,B
18.5,5.013514,0.959459,0.27027,1.918919,B
27.5,4.745455,0.936364,0.109091,1.690909,B
22.4,4.991071,0.964286,0.151786,1.892857,B
27,5.251852,0.777778,0.266667,1.77037,A+
7.777778,5.085714,0.928571,0.257143,1.571429,A+
28.666667,4.860465,0.883721,0.139535,1.837209,A+
14.4,5.777778,0.888889,0.305556,2.208333,A+
26.666667,4.7125,0.8125,0.175,1.6875,A+
8.75,5.171429,0.957143,0.228571,1.871429,A+
24.25,5.443299,0.876289,0.329897,1.793814,A+
20.2,4.673267,0.871287,0.118812,1.613861,A+
17.25,4.217391,0.855072,0.057971,1.521739,A+
10.833333,5.107692,0.938462,0.230769,1.753846,A+
17,5.361345,0.865546,0.336134,1.722689,A+
21.25,5.729412,0.917647,0.341176,1.929412,A+
30,5.155556,0.877778,0.2,2.1,A+
22.75,5.208791,0.824176,0.263736,1.56044,A+
16.75,5.731343,0.865672,0.432836,2.179104,A+
21.25,5.552941,0.929412,0.341176,1.682353,A+
21.75,5.057471,0.896552,0.252874,1.747126,A+
29.666667,5.573034,0.876404,0.292135,1.910112,A+
24.666667,5.527027,0.878378,0.324324,1.986486,A+
21.333333,5.09375,0.953125,0.234375,1.875,A+
10.5,5.063492,0.920635,0.206349,1.746032,A+
16.6,5.409639,0.86747,0.301205,2.060241,A+
20.75,5.228916,0.855422,0.228916,1.771084,A+
27,5.123457,0.950617,0.209877,1.987654,A+
22,5,0.909091,0.170455,1.909091,A+
16.4,5.243902,0.865854,0.195122,1.54878,A+
23,5.231884,0.869565,0.26087,2.043478,A+
17.8,4.955056,0.876404,0.157303,1.707865,A+
22.2,4.387387,0.864865,0.108108,1.612613,A+
27.4,4.912409,0.905109,0.167883,1.686131,A+
15.333333,5.358696,0.913043,0.23913,1.73913,A+
19.25,4.61039,0.896104,0.142857,1.792208,A+
12.6,5.079365,0.873016,0.15873,1.714286,A+
32,5.4375,1,0.21875,1.75,A+
23.5,5.12766,0.840426,0.159574,1.861702,A+
17.6,5.636364,0.909091,0.340909,1.761364,A+
18.833333,4.707965,0.893805,0.168142,1.690265,A+
17,5.129412,0.823529,0.247059,1.764706,A+
20.25,5.283951,0.962963,0.296296,1.888889,A+
22.5,5.4,0.855556,0.277778,2.022222,A+
23,4.695652,0.826087,0.184783,1.25,A+
24,5.430556,0.902778,0.277778,1.805556,A+
23.8,4.92437,0.848739,0.201681,1.647059,A+
21,5.428571,0.984127,0.285714,1.714286,A+
22.25,5.719101,0.853933,0.348315,1.831461,A+
14.142857,4.858586,0.777778,0.181818,1.434343,A+
19,5.736842,0.905263,0.389474,1.989474,A+
28,6.011905,0.940476,0.416667,2.214286,A+
14.5,5.37931,0.816092,0.275862,1.655172,A+
24.25,5.309278,0.824742,0.360825,1.989691,A+
22.4,5,0.839286,0.241071,1.446429,A+
22.142857,5.335484,0.819355,0.283871,1.819355,A+
18.2,4.89011,0.824176,0.230769,1.857143,A+
27,4.592593,0.864198,0.17284,1.703704,A+
12.666667,5.789474,0.894737,0.342105,2,A+
20.5,5,0.902439,0.231707,1.731707,A+
12.714286,6.044944,0.955056,0.404494,2.101124,A+
29.333333,5.159091,0.863636,0.25,1.704545,A+
18.333333,5.209091,0.845455,0.263636,1.781818,A+
21.6,4.944444,0.861111,0.185185,1.712963,A+
9.777778,5.556818,0.806818,0.261364,1.727273,A+
11.571429,5.506173,0.876543,0.234568,1.987654,A+
9.333333,5,0.916667,0.154762,1.583333,A+
26.333333,5.21519,0.936709,0.291139,1.860759,A+
23.75,5.463158,0.915789,0.294737,2.105263,A+
21.25,5.317647,0.894118,0.258824,1.705882,A+
22,4.886364,0.852273,0.170455,1.659091,A+
11.833333,5.225352,0.929577,0.253521,1.746479,A+
7.545455,4.73494,0.819277,0.168675,1.795181,A+
7.8,5.153846,0.794872,0.179487,1.74359,A+
17,5.235294,0.970588,0.235294,1.882353,A+
10.75,5.313953,0.848837,0.232558,1.825581,A+
9.125,5.30137,0.808219,0.273973,1.726027,A+
19.6,5.326531,0.867347,0.27551,1.642857,A+
20.666667,5.548387,0.903226,0.33871,1.919355,A+
17.6,5.738636,0.920455,0.352273,1.875,A+
25,4.92,0.973333,0.186667,1.72,A+
26,5.217949,0.897436,0.230769,1.769231,A+
18.666667,5.080357,0.866071,0.25,1.776786,A+
19.625,5.085987,0.726115,0.286624,1.863057,A+
25.666667,5.597403,0.922078,0.298701,1.935065,A+
33.333333,5.1,0.9,0.28,2.05,A+
27.333333,5.573171,0.829268,0.304878,1.890244,A+
17.2,5.581395,0.906977,0.325581,1.825581,A+
26.75,5.570093,0.88785,0.336449,1.981308,A+
22.666667,4.882353,0.852941,0.25,1.602941,A+
22,5.5,0.897727,0.363636,1.829545,A+
19.5,4.833333,0.935897,0.166667,1.628205,A+
20.5,5.447154,0.95122,0.300813,1.772358,A+
26.25,5.085714,0.87619,0.247619,1.819048,A+
26,6,0.974359,0.358974,2.307692,A+
20.6,5.097087,0.883495,0.252427,1.786408,A+
14.285714,4.73,0.85,0.16,1.49,A+
17,5.411765,1,0.352941,1.823529,A+
24,5.5,0.958333,0.291667,2.0625,A+
39.666667,5.12605,0.815126,0.168067,1.731092,A+
7.888889,4.71831,0.859155,0.140845,1.774648,A+
20.25,5.197531,0.888889,0.271605,1.802469,A+
32.666667,4.765306,0.795918,0.153061,1.663265,A+
30.25,5.033058,0.884298,0.264463,1.826446,A+
25,4.64,1,0.08,1.36,A+
37,4.972973,0.932432,0.189189,1.635135,A+
21.666667,5.384615,0.953846,0.261538,1.984615,A+
11.6,5.362069,0.810345,0.241379,1.862069,A+
21,5.392857,0.952381,0.309524,1.690476,A+
16,5.446429,0.821429,0.303571,1.6875,A+
30.666667,5.282609,0.793478,0.26087,1.923913,A+
15.166667,5.351648,0.978022,0.21978,1.758242,A+
25.6,5.21875,0.796875,0.296875,1.476563,A+
17.5,6.028571,0.857143,0.457143,1.828571,A+
23,5.119565,0.847826,0.217391,1.98913,A+
14.166667,5.788235,0.917647,0.388235,1.941176,A+
15.25,5.065574,0.786885,0.180328,1.868852,A+
20.75,5.542169,0.86747,0.289157,1.771084,A+
20.25,5.407407,0.925926,0.333333,1.691358,A+
22.666667,5.132353,0.911765,0.294118,1.485294,A+
15,5.155556,0.933333,0.244444,1.622222,A+
20.75,5.277108,0.86747,0.253012,1.951807,A+
20.6,4.854369,0.873786,0.174757,1.776699,A+
17.75,4.492958,0.84507,0.140845,1.464789,A+
16,5.234375,0.890625,0.234375,1.609375,A+
24.75,4.686869,0.909091,0.151515,1.646465,A+
20.5,4.914634,0.914634,0.134146,1.731707,A+
31.5,5.142857,0.968254,0.253968,1.650794,A+
24.333333,5.328767,0.931507,0.273973,1.986301,A+
11.714286,5.219512,0.743902,0.256098,1.841463,A+
20.8,5.442308,0.894231,0.317308,1.903846,A+
20.75,5.096386,0.915663,0.204819,1.60241,A+
21.666667,5.046154,0.892308,0.230769,1.830769,A+
17,5.544118,0.882353,0.323529,1.867647,A+
19,4.578947,0.863158,0.126316,1.789474,A+
31.333333,5.021277,0.819149,0.12766,1.638298,A+
19,5.434211,0.828947,0.276316,1.986842,A+
31.666667,5.231579,0.842105,0.252632,2.105263,A+
18.5,5.09009,0.900901,0.207207,1.936937,A+
19.5,5.166667,0.897436,0.282051,1.666667,A+
22.5,5.322222,0.866667,0.255556,1.866667,A+
19,5.263158,0.859649,0.263158,1.894737,A+
34,4.882353,0.911765,0.161765,1.5,A+
17.75,5.478873,0.915493,0.28169,1.873239,A+
19.75,5.544304,0.911392,0.303797,1.772152,A+
24.5,5.693878,1,0.346939,2.183673,A+
21,5.357143,0.880952,0.321429,2.035714,A+
17.2,5.639535,0.744186,0.337209,1.912791,A+
13.8,6.115942,0.826087,0.492754,1.942029,A+
13.8,6.115942,0.826087,0.492754,1.942029,A+
21,4.952381,0.916667,0.178571,1.904762,A+
25.666667,5.298701,0.896104,0.285714,1.623377,A+
18.4,5.293478,0.891304,0.26087,1.967391,A+
18.75,5.086667,0.873333,0.226667,1.573333,A+
20.75,4.518072,0.891566,0.108434,1.710843,A+
21.75,5.252874,0.908046,0.252874,1.931034,A+
19.75,5.341772,0.911392,0.265823,2.025316,A+
23.75,4.810526,0.915789,0.178947,1.536842,A+
29,5,1,0.137931,1.862069,A+
17.6,5.261364,0.863636,0.204545,1.511364,A+
9.6,4.84375,0.78125,0.208333,1.791667,A+
16.285714,5.289474,0.815789,0.27193,1.859649,A+
12.5,5.44,1,0.24,2.44,A+
17.142857,5.208333,0.808333,0.225,1.658333,A+
21.25,5.282353,0.811765,0.329412,1.823529,A+
21.25,4.811765,0.905882,0.129412,1.4,A+
33.333333,5.71,0.91,0.34,2.01,A+
23,4.652174,0.891304,0.108696,1.619565,A+
18.25,5.054795,0.90411,0.205479,1.972603,A+
15.166667,5.604396,0.912088,0.32967,1.912088,A+
8.166667,4.989796,0.816327,0.173469,2.05102,A+
25.25,5.445545,0.891089,0.287129,1.851485,A+
21,4.785714,0.797619,0.119048,1.404762,A+
10.428571,5.041096,0.821918,0.178082,1.452055,A+
16.5,4.909091,1,0.242424,1.636364,A+
29,4.885057,0.954023,0.183908,1.689655,A+
11.714286,5.02439,0.865854,0.170732,1.54878,A+
18.5,5.581081,0.878378,0.324324,1.918919,A+
31,4.967742,0.870968,0.193548,1.709677,A+
13.6,5.294118,0.941176,0.279412,1.75,A+
20,5.5375,0.9375,0.325,1.7375,A+
17.285714,5.322314,0.793388,0.247934,1.793388,A+
20.5,5.231707,0.841463,0.231707,1.731707,A+
17.75,5.760563,0.929577,0.366197,2.197183,A+
19.8,5.242424,0.878788,0.272727,1.828283,A+
15.833333,4.968421,0.852632,0.147368,1.831579,A+
17,4.941176,0.882353,0.191176,1.588235,A+
34,4.632353,0.897059,0.147059,1.588235,A+
14.2,5.183099,0.887324,0.239437,1.816901,A+
15,5.066667,0.858333,0.208333,1.75,A+
20.25,5.432099,0.864198,0.259259,2,A+
18.5,4.959459,0.864865,0.22973,2.067568,A+
33.333333,4.52,0.77,0.11,1.48,A+
25.5,5.5,0.803922,0.352941,1.95098,A+
22.5,4.8,0.822222,0.155556,1.633333,A+
14.692308,5.151832,0.853403,0.246073,1.780105,A+
24,4.652778,0.861111,0.111111,1.791667,A+
19.4,5.350515,0.865979,0.257732,1.989691,A+
21.666667,4.923077,0.938462,0.153846,1.892308,A+
21.666667,5.4,0.876923,0.307692,1.8,A+
13.5,5.592593,0.907407,0.296296,2.240741,A+
20.6,5.592233,0.902913,0.31068,1.592233,A+
20.25,5.641975,0.938272,0.333333,2.049383,A+
12,5.5,0.944444,0.277778,1.638889,A+
14,5.285714,0.928571,0.214286,1.619048,A+
16,5.375,0.895833,0.229167,2.229167,A+
30.333333,5.318681,0.945055,0.307692,1.593407,A+
19.75,5.772152,0.911392,0.379747,2.012658,A+
10.833333,5.707692,0.892308,0.292308,1.969231,A+
18.8,5.382979,0.819149,0.287234,1.904255,A+
32,5.21875,0.854167,0.239583,1.760417,A+
27,5.08642,0.950617,0.197531,1.765432,A+
26.666667,5.3,0.8625,0.2125,2.075,A+
23.25,5.408602,0.870968,0.301075,1.698925,A+
29.75,5.89916,0.857143,0.403361,2.134454,A+
30.75,5.609756,0.829268,0.325203,2.02439,A+
19.4,5.113402,0.907216,0.268041,1.71134,A+
16.222222,5.212329,0.869863,0.19863,1.972603,A+
27.666667,5.13253,0.879518,0.240964,1.855422,A+
9.5,5.065789,0.842105,0.197368,1.894737,A+
17.6,4.920455,0.852273,0.193182,1.75,A+
22.444444,5.247525,0.841584,0.272277,1.643564,A+
24.4,5.409836,0.885246,0.327869,1.893443,A+
28.4,5.338028,0.852113,0.295775,2.035211,A+
